420
Model zinc-blende CdSe nanocrystal CdSe-QD-A (spherical cut, no ligands), angstrom
Cd 0.0856 2.5616 -13.0673
Cd 4.3177 -3.5605 -12.8252
Cd 4.2487 2.4627 -11.9986
Cd -2.4975 -0.6895 -11.9535
Cd 1.7346 -6.8117 -11.7114
Cd -2.5665 5.3336 -11.1268
Cd 8.4118 2.3637 -10.9298
Cd 1.6656 -0.7885 -10.8847
Cd -5.0806 -3.9407 -10.8397
Cd 5.8977 -6.9106 -10.6427
Cd 1.5966 5.2346 -10.0581
Cd -5.1496 2.0824 -10.0130
Cd 5.8287 -0.8875 -9.8160
Cd -0.9175 -4.0397 -9.7709
Cd -5.2187 8.1056 -9.1863
Cd 5.7596 5.1357 -8.9893
Cd -0.9866 1.9835 -8.9443
Cd -7.7328 -1.1687 -8.8992
Cd 9.9917 -0.9865 -8.7473
Cd 3.2455 -4.1387 -8.7022
Cd -3.5007 -7.2909 -8.6571
Cd -1.0556 8.0066 -8.1176
Cd -7.8018 4.8544 -8.0725
Cd 9.9227 5.0367 -7.9206
Cd 3.1765 1.8845 -7.8755
Cd -3.5697 -1.2677 -7.8304
Cd -10.3159 -4.4199 -7.7854
Cd 7.4086 -4.2376 -7.6335
Cd 0.6624 -7.3898 -7.5884
Cd 3.1075 7.9076 -7.0489
Cd -3.6387 4.7554 -7.0038
Cd -10.3849 1.6032 -6.9587
Cd 7.3396 1.7855 -6.8068
Cd 0.5934 -1.3667 -6.7617
Cd -6.1528 -4.5189 -6.7166
Cd 11.5717 -4.3366 -6.5648
Cd 4.8255 -7.4888 -6.5197
Cd -1.9207 -10.6410 -6.4746
Cd -3.7077 10.7786 -6.1771
Cd 7.2706 7.8087 -5.9801
Cd 0.5244 4.6565 -5.9350
Cd -6.2218 1.5043 -5.8900
Cd 11.5027 1.6866 -5.7381
Cd 4.7565 -1.4657 -5.6930
Cd -1.9897 -4.6179 -5.6479
Cd -8.7359 -7.7701 -5.6028
Cd 8.9886 -7.5878 -5.4509
Cd 2.2424 -10.7400 -5.4059
Cd 0.4553 10.6796 -5.1084
Cd -6.2909 7.5274 -5.0633
Cd 4.6874 4.5575 -4.8663
Cd -2.0588 1.4053 -4.8212
Cd -8.8049 -1.7469 -4.7761
Cd 8.9196 -1.5646 -4.6243
Cd 2.1734 -4.7168 -4.5792
Cd -4.5728 -7.8690 -4.5341
Cd 6.4055 -10.8389 -4.3371
Cd 4.6184 10.5806 -4.0397
Cd -2.1278 7.4284 -3.9946
Cd -8.8740 4.2762 -3.9495
Cd 8.8505 4.4585 -3.7976
Cd 2.1043 1.3063 -3.7525
Cd -4.6419 -1.8459 -3.7074
Cd -11.3881 -4.9981 -3.6623
Cd 13.0826 -1.6636 -3.5555
Cd 6.3364 -4.8158 -3.5105
Cd -0.4098 -7.9680 -3.4654
Cd -7.1560 -11.1202 -3.4203
Cd -2.1968 13.4516 -3.1679
Cd -8.9430 10.2994 -3.1228
Cd 8.7815 10.4817 -2.9709
Cd 2.0353 7.3295 -2.9258
Cd -4.7109 4.1773 -2.8807
Cd -11.4571 1.0251 -2.8357
Cd 13.0136 4.3596 -2.7289
Cd 6.2674 1.2074 -2.6838
Cd -0.4788 -1.9449 -2.6387
Cd -7.2250 -5.0971 -2.5936
Cd 10.4995 -4.9148 -2.4417
Cd 3.7533 -8.0670 -2.3966
Cd -2.9929 -11.2192 -2.3516
Cd 1.9663 13.3526 -2.0992
Cd -4.7799 10.2004 -2.0541
Cd -11.5261 7.0482 -2.0090
Cd 6.1984 7.2305 -1.8571
Cd -0.5478 4.0783 -1.8120
Cd -7.2940 0.9261 -1.7669
Cd 10.4305 1.1084 -1.6151
Cd 3.6843 -2.0438 -1.5700
Cd -3.0619 -5.1960 -1.5249
Cd -9.8081 -8.3482 -1.4798
Cd 7.9164 -8.1659 -1.3279
Cd 1.1702 -11.3181 -1.2828
Cd -0.6168 10.1014 -0.9854
Cd -7.3630 6.9492 -0.9403
Cd 10.3615 7.1315 -0.7884
Cd 3.6153 3.9793 -0.7433
Cd -3.1309 0.8271 -0.6982
Cd -9.8771 -2.3251 -0.6531
Cd 7.8474 -2.1428 -0.5012
Cd 1.1012 -5.2950 -0.4562
Cd -5.6450 -8.4472 -0.4111
Cd 5.3333 -11.4171 -0.2141
Cd 3.5462 10.0025 0.0834
Cd -3.2000 6.8503 0.1285
Cd -9.9462 3.6981 0.1736
Cd 7.7783 3.8804 0.3254
Cd 1.0321 0.7282 0.3705
Cd -5.7141 -2.4241 0.4156
Cd -12.4603 -5.5763 0.4607
Cd 12.0104 -2.2418 0.5675
Cd 5.2643 -5.3940 0.6126
Cd -1.4819 -8.5462 0.6577
Cd -3.2690 12.8734 0.9551
Cd -10.0152 9.7212 1.0002
Cd 7.7093 9.9035 1.1521
Cd 0.9631 6.7513 1.1972
Cd -5.7831 3.5991 1.2423
Cd -12.5293 0.4469 1.2874
Cd 11.9414 3.7814 1.3942
Cd 5.1952 0.6292 1.4392
Cd -1.5510 -2.5230 1.4843
Cd -8.2972 -5.6752 1.5294
Cd 9.4273 -5.4929 1.6813
Cd 2.6811 -8.6451 1.7264
Cd -4.0651 -11.7973 1.7715
Cd 0.8941 12.7744 2.0239
Cd -5.8521 9.6222 2.0689
Cd 5.1262 6.6523 2.2659
Cd -1.6200 3.5001 2.3110
Cd -8.3662 0.3479 2.3561
Cd 9.3583 0.5302 2.5080
Cd 2.6121 -2.6220 2.5531
Cd -4.1341 -5.7742 2.5981
Cd 6.8442 -8.7441 2.7951
Cd 0.0980 -11.8963 2.8402
Cd 5.0572 12.6755 3.0926
Cd -1.6890 9.5233 3.1377
Cd -8.4352 6.3711 3.1828
Cd 9.2893 6.5534 3.3346
Cd 2.5431 3.4012 3.3797
Cd -4.2031 0.2490 3.4248
Cd -10.9493 -2.9033 3.4699
Cd 13.5214 0.4312 3.5767
Cd 6.7752 -2.7210 3.6218
Cd 0.0290 -5.8732 3.6669
Cd -6.7172 -9.0254 3.7120
Cd 4.2611 -11.9953 3.9089
Cd 2.4740 9.4243 4.2064
Cd -4.2722 6.2721 4.2515
Cd -11.0184 3.1199 4.2966
Cd 6.7062 3.3022 4.4485
Cd -0.0400 0.1500 4.4935
Cd -6.7862 -3.0022 4.5386
Cd 10.9383 -2.8199 4.6905
Cd 4.1921 -5.9721 4.7356
Cd -2.5541 -9.1243 4.7807
Cd -4.3412 12.2952 5.0782
Cd 6.6371 9.3253 5.2751
Cd -0.1091 6.1731 5.3202
Cd -6.8553 3.0209 5.3653
Cd 10.8692 3.2032 5.5172
Cd 4.1230 0.0510 5.5623
Cd -2.6232 -3.1012 5.6074
Cd -9.3694 -6.2534 5.6524
Cd 8.3551 -6.0711 5.8043
Cd 1.6089 -9.2233 5.8494
Cd -0.1781 12.1963 6.1469
Cd -6.9243 9.0441 6.1920
Cd 4.0540 6.0742 6.3889
Cd -2.6922 2.9220 6.4340
Cd -9.4384 -0.2302 6.4791
Cd 8.2861 -0.0480 6.6310
Cd 1.5399 -3.2002 6.6761
Cd -5.2063 -6.3524 6.7212
Cd 5.7720 -9.3223 6.9181
Cd -2.7612 8.9451 7.2607
Cd -9.5074 5.7929 7.3058
Cd 8.2171 5.9752 7.4577
Cd 1.4709 2.8230 7.5028
Cd -5.2753 -0.3292 7.5478
Cd 5.7030 -3.2991 7.7448
Cd -1.0432 -6.4513 7.7899
Cd 1.4019 8.8461 8.3294
Cd -5.3443 5.6939 8.3745
Cd 5.6340 2.7240 8.5715
Cd -1.1122 -0.4282 8.6166
Cd -7.8584 -3.5804 8.6617
Cd 9.8661 -3.3981 8.8135
Cd 3.1199 -6.5503 8.8586
Cd -3.6263 -9.7025 8.9037
Cd 5.5649 8.7472 9.3981
Cd -1.1813 5.5950 9.4432
Cd -7.9275 2.4428 9.4883
Cd 9.7970 2.6250 9.6402
Cd 3.0508 -0.5272 9.6853
Cd -3.6954 -3.6794 9.7304
Cd 7.2830 -6.6493 9.9273
Cd 0.5368 -9.8015 9.9724
Cd 2.9818 5.4960 10.5120
Cd -3.7644 2.3438 10.5571
Cd 7.2139 -0.6261 10.7540
Cd 0.4677 -3.7783 10.7991
Cd 0.3987 2.2448 11.6258
Cd -6.3475 -0.9074 11.6709
Cd 4.6308 -3.8773 11.8678
Cd -2.1154 -7.0295 11.9129
Cd 4.5618 2.1458 12.6945
Cd -2.1844 -1.0064 12.7396
Cd 1.9787 -1.1053 13.8083
Se -1.9787 1.1053 -13.8083
Se 2.1844 1.0064 -12.7396
Se -4.5618 -2.1458 -12.6945
Se 2.1154 7.0295 -11.9129
Se -4.6308 3.8773 -11.8678
Se 6.3475 0.9074 -11.6709
Se -0.3987 -2.2448 -11.6258
Se -0.4677 3.7783 -10.7991
Se -7.2139 0.6261 -10.7540
Se 3.7644 -2.3438 -10.5571
Se -2.9818 -5.4960 -10.5120
Se -0.5368 9.8015 -9.9724
Se -7.2830 6.6493 -9.9273
Se 3.6954 3.6794 -9.7304
Se -3.0508 0.5272 -9.6853
Se -9.7970 -2.6250 -9.6402
Se 7.9275 -2.4428 -9.4883
Se 1.1813 -5.5950 -9.4432
Se -5.5649 -8.7472 -9.3981
Se 3.6263 9.7025 -8.9037
Se -3.1199 6.5503 -8.8586
Se -9.8661 3.3981 -8.8135
Se 7.8584 3.5804 -8.6617
Se 1.1122 0.4282 -8.6166
Se -5.6340 -2.7240 -8.5715
Se 5.3443 -5.6939 -8.3745
Se -1.4019 -8.8461 -8.3294
Se 1.0432 6.4513 -7.7899
Se -5.7030 3.2991 -7.7448
Se 5.2753 0.3292 -7.5478
Se -1.4709 -2.8230 -7.5028
Se -8.2171 -5.9752 -7.4577
Se 9.5074 -5.7929 -7.3058
Se 2.7612 -8.9451 -7.2607
Se -5.7720 9.3223 -6.9181
Se 5.2063 6.3524 -6.7212
Se -1.5399 3.2002 -6.6761
Se -8.2861 0.0480 -6.6310
Se 9.4384 0.2302 -6.4791
Se 2.6922 -2.9220 -6.4340
Se -4.0540 -6.0742 -6.3889
Se 6.9243 -9.0441 -6.1920
Se 0.1781 -12.1963 -6.1469
Se -1.6089 9.2233 -5.8494
Se -8.3551 6.0711 -5.8043
Se 9.3694 6.2534 -5.6524
Se 2.6232 3.1012 -5.6074
Se -4.1230 -0.0510 -5.5623
Se -10.8692 -3.2032 -5.5172
Se 6.8553 -3.0209 -5.3653
Se 0.1091 -6.1731 -5.3202
Se -6.6371 -9.3253 -5.2751
Se 4.3412 -12.2952 -5.0782
Se 2.5541 9.1243 -4.7807
Se -4.1921 5.9721 -4.7356
Se -10.9383 2.8199 -4.6905
Se 6.7862 3.0022 -4.5386
Se 0.0400 -0.1500 -4.4935
Se -6.7062 -3.3022 -4.4485
Se 11.0184 -3.1199 -4.2966
Se 4.2722 -6.2721 -4.2515
Se -2.4740 -9.4243 -4.2064
Se -4.2611 11.9953 -3.9089
Se 6.7172 9.0254 -3.7120
Se -0.0290 5.8732 -3.6669
Se -6.7752 2.7210 -3.6218
Se -13.5214 -0.4312 -3.5767
Se 10.9493 2.9033 -3.4699
Se 4.2031 -0.2490 -3.4248
Se -2.5431 -3.4012 -3.3797
Se -9.2893 -6.5534 -3.3346
Se 8.4352 -6.3711 -3.1828
Se 1.6890 -9.5233 -3.1377
Se -5.0572 -12.6755 -3.0926
Se -0.0980 11.8963 -2.8402
Se -6.8442 8.7441 -2.7951
Se 4.1341 5.7742 -2.5981
Se -2.6121 2.6220 -2.5531
Se -9.3583 -0.5302 -2.5080
Se 8.3662 -0.3479 -2.3561
Se 1.6200 -3.5001 -2.3110
Se -5.1262 -6.6523 -2.2659
Se 5.8521 -9.6222 -2.0689
Se -0.8941 -12.7744 -2.0239
Se 4.0651 11.7973 -1.7715
Se -2.6811 8.6451 -1.7264
Se -9.4273 5.4929 -1.6813
Se 8.2972 5.6752 -1.5294
Se 1.5510 2.5230 -1.4843
Se -5.1952 -0.6292 -1.4392
Se -11.9414 -3.7814 -1.3942
Se 12.5293 -0.4469 -1.2874
Se 5.7831 -3.5991 -1.2423
Se -0.9631 -6.7513 -1.1972
Se -7.7093 -9.9035 -1.1521
Se 10.0152 -9.7212 -1.0002
Se 3.2690 -12.8734 -0.9551
Se 1.4819 8.5462 -0.6577
Se -5.2643 5.3940 -0.6126
Se -12.0104 2.2418 -0.5675
Se 12.4603 5.5763 -0.4607
Se 5.7141 2.4241 -0.4156
Se -1.0321 -0.7282 -0.3705
Se -7.7783 -3.8804 -0.3254
Se 9.9462 -3.6981 -0.1736
Se 3.2000 -6.8503 -0.1285
Se -3.5462 -10.0025 -0.0834
Se -5.3333 11.4171 0.2141
Se 5.6450 8.4472 0.4111
Se -1.1012 5.2950 0.4562
Se -7.8474 2.1428 0.5012
Se 9.8771 2.3251 0.6531
Se 3.1309 -0.8271 0.6982
Se -3.6153 -3.9793 0.7433
Se -10.3615 -7.1315 0.7884
Se 7.3630 -6.9492 0.9403
Se 0.6168 -10.1014 0.9854
Se -1.1702 11.3181 1.2828
Se -7.9164 8.1659 1.3279
Se 9.8081 8.3482 1.4798
Se 3.0619 5.1960 1.5249
Se -3.6843 2.0438 1.5700
Se -10.4305 -1.1084 1.6151
Se 7.2940 -0.9261 1.7669
Se 0.5478 -4.0783 1.8120
Se -6.1984 -7.2305 1.8571
Se 11.5261 -7.0482 2.0090
Se 4.7799 -10.2004 2.0541
Se -1.9663 -13.3526 2.0992
Se 2.9929 11.2192 2.3516
Se -3.7533 8.0670 2.3966
Se -10.4995 4.9148 2.4417
Se 7.2250 5.0971 2.5936
Se 0.4788 1.9449 2.6387
Se -6.2674 -1.2074 2.6838
Se -13.0136 -4.3596 2.7289
Se 11.4571 -1.0251 2.8357
Se 4.7109 -4.1773 2.8807
Se -2.0353 -7.3295 2.9258
Se -8.7815 -10.4817 2.9709
Se 8.9430 -10.2994 3.1228
Se 2.1968 -13.4516 3.1679
Se 7.1560 11.1202 3.4203
Se 0.4098 7.9680 3.4654
Se -6.3364 4.8158 3.5105
Se -13.0826 1.6636 3.5555
Se 11.3881 4.9981 3.6623
Se 4.6419 1.8459 3.7074
Se -2.1043 -1.3063 3.7525
Se -8.8505 -4.4585 3.7976
Se 8.8740 -4.2762 3.9495
Se 2.1278 -7.4284 3.9946
Se -4.6184 -10.5806 4.0397
Se -6.4055 10.8389 4.3371
Se 4.5728 7.8690 4.5341
Se -2.1734 4.7168 4.5792
Se -8.9196 1.5646 4.6243
Se 8.8049 1.7469 4.7761
Se 2.0588 -1.4053 4.8212
Se -4.6874 -4.5575 4.8663
Se 6.2909 -7.5274 5.0633
Se -0.4553 -10.6796 5.1084
Se -2.2424 10.7400 5.4059
Se -8.9886 7.5878 5.4509
Se 8.7359 7.7701 5.6028
Se 1.9897 4.6179 5.6479
Se -4.7565 1.4657 5.6930
Se -11.5027 -1.6866 5.7381
Se 6.2218 -1.5043 5.8900
Se -0.5244 -4.6565 5.9350
Se -7.2706 -7.8087 5.9801
Se 3.7077 -10.7786 6.1771
Se 1.9207 10.6410 6.4746
Se -4.8255 7.4888 6.5197
Se -11.5717 4.3366 6.5648
Se 6.1528 4.5189 6.7166
Se -0.5934 1.3667 6.7617
Se -7.3396 -1.7855 6.8068
Se 10.3849 -1.6032 6.9587
Se 3.6387 -4.7554 7.0038
Se -3.1075 -7.9076 7.0489
Se -0.6624 7.3898 7.5884
Se -7.4086 4.2376 7.6335
Se 10.3159 4.4199 7.7854
Se 3.5697 1.2677 7.8304
Se -3.1765 -1.8845 7.8755
Se -9.9227 -5.0367 7.9206
Se 7.8018 -4.8544 8.0725
Se 1.0556 -8.0066 8.1176
Se 3.5007 7.2909 8.6571
Se -3.2455 4.1387 8.7022
Se -9.9917 0.9865 8.7473
Se 7.7328 1.1687 8.8992
Se 0.9866 -1.9835 8.9443
Se -5.7596 -5.1357 8.9893
Se 5.2187 -8.1056 9.1863
Se 0.9175 4.0397 9.7709
Se -5.8287 0.8875 9.8160
Se 5.1496 -2.0824 10.0130
Se -1.5966 -5.2346 10.0581
Se -5.8977 6.9106 10.6427
Se 5.0806 3.9407 10.8397
Se -1.6656 0.7885 10.8847
Se -8.4118 -2.3637 10.9298
Se 2.5665 -5.3336 11.1268
Se -1.7346 6.8117 11.7114
Se 2.4975 0.6895 11.9535
Se -4.2487 -2.4627 11.9986
Se -4.3177 3.5605 12.8252
Se -0.0856 -2.5616 13.0673
