15
candidate B (rigidly rotated), angstrom
C -2.77707995 2.80367489 -0.35414860
C -2.57504568 1.57845385 -1.18989772
C -3.20476174 1.39363236 -2.36806283
N -3.09004182 0.28748850 -3.23022618
C -2.78127959 -1.01619676 -2.95708808
S -2.61419465 -2.11462777 -4.24112609
N -2.62364076 -1.42285977 -1.66277509
H -3.18664605 2.54897210 0.62556736
H -1.82911576 3.31335012 -0.17629942
H -3.45686644 3.50403479 -0.83349611
H -1.86767811 0.84461984 -0.81344989
H -3.85289391 2.17842858 -2.76424090
H -3.30101223 0.47171880 -4.20806237
H -2.99446943 -0.86467164 -0.90237287
H -2.52999854 -2.41924648 -1.50931488
