15
candidate C (rigidly rotated), angstrom
C 1.47956869 1.02145103 0.42234228
C 1.62787866 -0.46614362 0.50395156
C 0.81762149 -1.32160563 1.16319699
N -0.31519438 -0.94069965 1.89202123
C -1.17840896 -1.74671168 2.57703389
S -2.49236813 -1.05307456 3.40120889
N -0.97792917 -3.09558506 2.59895956
H 2.35688340 1.52014428 0.83833853
H 0.60441195 1.38505116 0.95518676
H 1.39748179 1.34402269 -0.61696363
H 2.47693827 -0.89270539 -0.02254018
H 1.03236952 -2.38920960 1.14887757
H -0.53018047 0.05301147 1.92398372
H -0.22971896 -3.54836412 2.09130154
H -1.64662017 -3.66717454 3.09704632
