15
candidate D (rigidly rotated), angstrom
C 0.33592010 0.56588325 -1.82856971
C -0.47983699 0.15691223 -0.64400887
C -0.48857154 0.83576202 0.52166133
N -1.26037934 0.43592623 1.62106835
C -1.35316415 1.03703510 2.84359366
S -2.36388003 0.36421172 4.03146491
N -0.63491316 2.16766738 3.09926240
H -0.29940976 0.75671548 -2.69562345
H 1.03223831 -0.22391809 -2.11693254
H 0.90987919 1.46673729 -1.62350298
H -1.09244609 -0.73697973 -0.74365340
H 0.11295457 1.73377635 0.65444923
H -1.82393688 -0.40299070 1.50270208
H -0.02823797 2.59898138 2.41493956
H -0.72564662 2.59334658 4.01169350
