15
candidate A (rigidly rotated), angstrom
C -1.21736087 4.58395260 4.85118354
C -0.92711588 3.31971780 4.08458276
C -0.00350192 2.42943098 4.50975218
N -1.67424627 3.20780908 2.89636977
C -2.01769773 2.10652931 2.15532063
S -2.83411463 2.32832731 0.68372888
N -1.72441595 0.85582514 2.60995228
H -0.60185415 4.64848056 5.74278289
H -2.26468078 4.62819060 5.15103801
H -1.02202165 5.46174205 4.23454883
H 0.52526489 2.61855091 5.43233482
H 0.29087178 1.56635368 3.93152283
H -2.05781824 4.08033490 2.54006700
H -1.48217893 0.70000500 3.58142980
H -2.10411431 0.07753146 2.08555687
