15
S0 starting structure, angstrom
C -3.51037900 -0.63214400 -0.03014300
C -2.01460300 -0.58128400 -0.00715500
C -1.31195500 0.36272100 -0.66587700
N 0.08722900 0.50456300 -0.71284000
C 1.04294500 0.13261400 0.19148000
S 2.68144400 0.34636400 -0.19948500
N 0.67346400 -0.39191100 1.39722800
H -3.92362700 -0.52301300 0.97473400
H -3.86068500 -1.59204900 -0.41211600
H -3.92525000 0.15583600 -0.65412800
H -1.51018600 -1.36582900 0.55020200
H -1.83644700 1.09616900 -1.28223700
H 0.45027100 0.98903000 -1.53021700
H -0.26863000 -0.25805200 1.74628400
H 1.41054500 -0.52393600 2.07868700
