13
X (rigidly rotated and translated), angstrom
S 0.58495856 -0.67670506 4.02437838
C 1.85913143 -1.15091597 3.02032453
N 3.02567626 -1.72934723 3.43869774
C 3.83924519 -2.11319702 2.31149988
C 3.07596817 -1.62112084 1.11048454
N 1.89617742 -1.00115163 1.66142061
C 3.22163274 -3.11081093 1.35141571
H 3.20652165 -1.99161262 4.40022917
H 4.92364341 -2.04700479 2.42900579
H 3.52999343 -1.14850103 0.23607162
H 1.11962469 -0.64616248 1.11645048
H 3.90610057 -3.64150377 0.69897765
H 2.34946641 -3.66699615 1.67780967
