21
SAMPL9 WP6 guest G7 (challenge 3D structure; coordinates copied unchanged), angstrom
C -0.575 0.875 -0.327
C -1.927 0.419 -0.867
C -0.727 1.845 0.841
C -2.806 -0.172 0.235
C -1.600 1.260 1.951
C -2.951 0.750 1.446
N -3.809 1.914 1.079
H -0.000 0.000 0.000
H 0.001 1.352 -1.128
H -2.438 1.265 -1.341
H -1.772 -0.331 -1.651
H 0.263 2.087 1.246
H -1.157 2.788 0.483
H -3.791 -0.428 -0.173
H -2.358 -1.117 0.570
H -1.063 0.421 2.413
H -1.742 2.005 2.743
H -3.486 0.235 2.252
H -3.242 2.758 0.973
H -4.510 2.085 1.804
H -4.294 1.737 0.196
