13
X (rigidly rotated and translated), angstrom
C -0.95747808 -1.87525679 4.09092959
C -0.74561582 -1.65552607 2.63320388
C -1.53378502 -2.07234182 1.62921770
S -3.04519088 -3.05193784 1.81536754
O -3.57193404 -3.29800639 0.48235108
O -2.83955297 -4.12850239 2.75374269
O -4.03033852 -1.98462375 2.54845315
H -0.11228027 -2.42217167 4.51129409
H -1.86727195 -2.42732155 4.30449070
H -0.99936002 -0.91676730 4.61052611
H 0.15011399 -1.08892704 2.36898142
H -1.25622022 -1.84235520 0.60224945
H -4.61251113 -1.46952372 1.97186441
