14
S0, angstrom
N -3.07122100 -0.37211700 0.68323900
C -1.70182600 -0.33053500 0.70965200
C -0.93098900 0.21594200 -0.26932700
S 0.85408000 0.22817000 -0.09890000
O 1.37437100 1.54827000 -0.44759500
O 1.19276400 -0.38697900 1.18587300
C 1.38842700 -0.93469000 -1.43395000
H -3.57351800 -0.62281700 1.52325300
H -3.56644800 0.17734500 -0.00752700
H -1.23699000 -0.80852800 1.57209800
H -1.38005900 0.71640200 -1.12202900
H 1.04050200 -0.59021700 -2.40399900
H 1.00416500 -1.93498000 -1.25429200
H 2.47486100 -0.97774500 -1.45225300
