14
X (rigidly rotated and translated), angstrom
N 2.39448534 -0.54870396 1.67465922
C 2.02169934 -0.79056296 0.38553519
C 0.98934854 -1.58239799 -0.03179208
S -0.02547286 -2.59451194 1.04625898
O -0.25342990 -3.89434349 0.42275640
O 0.50562549 -2.52138890 2.41708640
C -1.63910110 -1.69355960 1.04245955
H 3.26609311 -0.07024920 1.85452636
H 1.98302658 -1.11021270 2.41757967
H 2.60676896 -0.25430989 -0.36557151
H 0.81794766 -1.68493391 -1.09752007
H -2.04110183 -1.63560815 0.03471202
H -1.52347307 -0.68747471 1.43605385
H -2.34763924 -2.23204401 1.66738941
