15
S0, angstrom
C 1.73500300 0.10443600 -1.32214600
C 1.22631800 -0.05297400 0.11317000
S -0.66185600 -0.11250400 0.22394500
O -1.04995600 -0.65227300 1.52429500
O -1.11912500 1.21652600 -0.19684200
C -1.17662300 -1.33325800 -1.07105900
O 1.58561600 1.04698400 0.91753100
H 2.81006300 0.27170000 -1.31473600
H 1.26763100 0.95573100 -1.81391800
H 1.53650000 -0.78627700 -1.91497800
H 1.64479400 -0.95821500 0.58434600
H -2.25312900 -1.47381500 -1.00323100
H -0.69432800 -2.29458700 -0.91207200
H -0.93806500 -0.97117600 -2.06736500
H 1.17576500 1.85757500 0.57916700
