15
X (rigidly rotated and translated), angstrom
C 2.29374099 -2.33640012 1.76424932
C 1.99520481 -0.84186571 1.86529272
S 0.23713320 -0.47733229 1.28700157
O 0.21917510 -0.71344166 -0.16050422
O -0.72807760 -1.15142017 2.16088926
C 0.12031186 1.34136799 1.56991451
O 2.85111690 -0.06879446 1.04649046
H 3.31981472 -2.53493598 2.06830073
H 2.16820326 -2.68966643 0.74212560
H 1.62791828 -2.90785495 2.40697869
H 2.11558132 -0.48297035 2.90177578
H -0.81211661 1.70302561 1.14212919
H 0.94947164 1.85441793 1.08936256
H 0.12732206 1.56541018 2.63370466
H 2.85758824 -0.42652935 0.14599362
