486
1BNA chains AB, non-hydrogen ATOM records (main alternate location), angstrom
O 18.93500000 34.19500000 25.61700000
C 19.13000000 33.92100000 24.21900000
C 19.96100000 32.66800000 24.10000000
O 19.36000000 31.58300000 24.85200000
C 20.17200000 32.12200000 22.69400000
O 21.35000000 31.32500000 22.68100000
C 18.94800000 31.22300000 22.64700000
C 19.23100000 30.48200000 23.94400000
N 18.07000000 29.66100000 24.38000000
C 18.22400000 28.45400000 25.01500000
O 19.36000000 28.01400000 25.21400000
N 17.14300000 27.76100000 25.37700000
C 15.91700000 28.22600000 25.12000000
N 14.82800000 27.47700000 25.44400000
C 15.71900000 29.44200000 24.47100000
C 16.84300000 30.17100000 24.10100000
P 22.40900000 31.28600000 21.48300000
O 23.53600000 32.15700000 21.85100000
O 21.82200000 31.45900000 20.13900000
O 22.84000000 29.75100000 21.49800000
C 23.54300000 29.17500000 22.59400000
C 23.49400000 27.70900000 22.27900000
O 22.19300000 27.25200000 22.67400000
C 23.69300000 27.32500000 20.80700000
O 24.72300000 26.32000000 20.65300000
C 22.27300000 26.88500000 20.41600000
C 21.72100000 26.30400000 21.71600000
N 20.23700000 26.47000000 21.78000000
C 19.52600000 27.58400000 21.42900000
N 18.20700000 27.45500000 21.63600000
C 18.08300000 26.21200000 22.14200000
C 16.90400000 25.52500000 22.54500000
O 15.73900000 25.91600000 22.51800000
N 17.19700000 24.27900000 23.03700000
C 18.43400000 23.71700000 23.15500000
N 18.50800000 22.45600000 23.66800000
N 19.53700000 24.36000000 22.77000000
C 19.29000000 25.59400000 22.27400000
P 25.06400000 25.62100000 19.25200000
O 26.50600000 25.31600000 19.22000000
O 24.55900000 26.41200000 18.11500000
O 24.26000000 24.24600000 19.32700000
C 24.58400000 23.28500000 20.33500000
C 23.52300000 22.23300000 20.24500000
O 22.25600000 22.84400000 20.45300000
C 23.42400000 21.55700000 18.90300000
O 24.12100000 20.30900000 18.92800000
C 21.93000000 21.40600000 18.66100000
C 21.27800000 21.96600000 19.90900000
N 20.19600000 22.88900000 19.52100000
C 18.90900000 22.58400000 19.81600000
O 18.68500000 21.51200000 20.38200000
N 17.93500000 23.44700000 19.50200000
C 18.21700000 24.60300000 18.89700000
N 17.22100000 25.49900000 18.62900000
C 19.52600000 24.94500000 18.57100000
C 20.53700000 24.04800000 18.89900000
P 24.24900000 19.41200000 17.61700000
O 25.42000000 18.53500000 17.76500000
O 24.20800000 20.29600000 16.44000000
O 22.93100000 18.53700000 17.67000000
C 22.71400000 17.62500000 18.75300000
C 21.39300000 16.96000000 18.50500000
O 20.35300000 17.95200000 18.49600000
C 21.26400000 16.22900000 17.17600000
O 20.28400000 15.21400000 17.23800000
C 20.79300000 17.36800000 16.28800000
C 19.71600000 17.90100000 17.21800000
N 19.30500000 19.28100000 16.86900000
C 20.01700000 20.26300000 16.23200000
N 19.31300000 21.39400000 16.07700000
C 18.12100000 21.10000000 16.63500000
C 16.95200000 21.90400000 16.74900000
O 16.76900000 23.05700000 16.36800000
N 15.93300000 21.21400000 17.35200000
C 15.97200000 19.93000000 17.81600000
N 14.83100000 19.41600000 18.35300000
N 17.06800000 19.17900000 17.71700000
C 18.08400000 19.82500000 17.12100000
P 20.35600000 13.96900000 16.24500000
O 21.11600000 12.89100000 16.89200000
O 20.83700000 14.42300000 14.91000000
O 18.81000000 13.58100000 16.16100000
C 18.01500000 13.56900000 17.36200000
C 16.67200000 14.08800000 16.95700000
O 16.84200000 15.44700000 16.56100000
C 16.01900000 13.39300000 15.76400000
O 14.76200000 12.79600000 16.12000000
C 15.95200000 14.49800000 14.69600000
C 15.85100000 15.73200000 15.56900000
N 16.39100000 16.91600000 14.86700000
C 17.65800000 17.10300000 14.38200000
N 17.86300000 18.34600000 13.91300000
C 16.67300000 18.95300000 14.09800000
C 16.23000000 20.27900000 13.81900000
N 17.04500000 21.22200000 13.26800000
N 14.96600000 20.57800000 14.11800000
C 14.17800000 19.65200000 14.66900000
N 14.46300000 18.39200000 14.98400000
C 15.75000000 18.11000000 14.66100000
P 13.86600000 12.00600000 15.06300000
O 13.02800000 11.03900000 15.80000000
O 14.71500000 11.49900000 13.96800000
O 12.87900000 13.11100000 14.48000000
C 11.80200000 13.59700000 15.29000000
C 11.11100000 14.60300000 14.43500000
O 12.15200000 15.46000000 13.96200000
C 10.41700000 14.07000000 13.18700000
O 9.00700000 14.36900000 13.18100000
C 11.24000000 14.69200000 12.06100000
C 11.69900000 15.97400000 12.71900000
N 12.91800000 16.52600000 12.07800000
C 14.11500000 15.89900000 11.86800000
N 15.04900000 16.71400000 11.35600000
C 14.41600000 17.90100000 11.24600000
C 14.87300000 19.18700000 10.81500000
N 16.16100000 19.41800000 10.42700000
N 13.99900000 20.19100000 10.85200000
C 12.75300000 19.96200000 11.27200000
N 12.21000000 18.82400000 11.69800000
C 13.11600000 17.82300000 11.65700000
P 8.08100000 14.05000000 11.91500000
O 6.66800000 13.96000000 12.34200000
O 8.60000000 12.89400000 11.13700000
O 8.23900000 15.38700000 11.07600000
C 7.90700000 16.63500000 11.68600000
C 8.16200000 17.62800000 10.59800000
O 9.54300000 17.58000000 10.27900000
C 7.46100000 17.28400000 9.29600000
O 6.25100000 18.03400000 9.16200000
C 8.53200000 17.52700000 8.22300000
C 9.64400000 18.20900000 9.01900000
N 11.02100000 17.90300000 8.56500000
C 11.82200000 18.92300000 8.17600000
O 11.38300000 20.07700000 8.14300000
N 13.11900000 18.64100000 7.85200000
C 13.63300000 17.37200000 7.88200000
O 14.83000000 17.22200000 7.61900000
C 12.78100000 16.32500000 8.23500000
C 13.26900000 14.90200000 8.23600000
C 11.46500000 16.61600000 8.59400000
P 5.38400000 17.99000000 7.82400000
O 4.02500000 18.44400000 8.18000000
O 5.45800000 16.66800000 7.16000000
O 6.08600000 19.11800000 6.92700000
C 6.14600000 20.47800000 7.41800000
C 6.99500000 21.22900000 6.43800000
O 8.18800000 20.45800000 6.28400000
C 6.41800000 21.33200000 5.02900000
O 5.96700000 22.66700000 4.69600000
C 7.51300000 20.71800000 4.13900000
C 8.73600000 20.85500000 5.03400000
N 9.82300000 19.87600000 4.75900000
C 11.08600000 20.31600000 4.49400000
O 11.32400000 21.51600000 4.38900000
N 12.09400000 19.40300000 4.41200000
C 11.87600000 18.06000000 4.55100000
O 12.85800000 17.31700000 4.50300000
C 10.56900000 17.61100000 4.76500000
C 10.26100000 16.14000000 4.89600000
C 9.54500000 18.54800000 4.90400000
P 5.53100000 23.07100000 3.20900000
O 4.64800000 24.24400000 3.26900000
O 5.01000000 21.90500000 2.47000000
O 6.92600000 23.54700000 2.61100000
C 7.63600000 24.62700000 3.24900000
C 8.89700000 24.85300000 2.45700000
O 9.63800000 23.62700000 2.44800000
C 8.71700000 25.24000000 0.99800000
O 9.47000000 26.41400000 0.66700000
C 9.12600000 23.96500000 0.25300000
C 10.24100000 23.48300000 1.15700000
N 10.52400000 22.02200000 1.01500000
C 11.81400000 21.60300000 0.84000000
O 12.69100000 22.44700000 0.67000000
N 12.10600000 20.29700000 0.87300000
C 11.14100000 19.39500000 1.04600000
N 11.46100000 18.07500000 1.08900000
C 9.80300000 19.77500000 1.17700000
C 9.49900000 21.13300000 1.16700000
P 9.05500000 27.33300000 -0.58100000
O 9.49600000 28.71700000 -0.25800000
O 7.63200000 27.10600000 -0.94700000
O 9.95400000 26.76500000 -1.77100000
C 11.38200000 26.94000000 -1.72000000
C 11.97200000 26.09000000 -2.80200000
O 11.80200000 24.72400000 -2.40400000
C 11.32700000 26.17800000 -4.18800000
O 12.31100000 26.09600000 -5.21400000
C 10.41400000 24.96200000 -4.18600000
C 11.42900000 24.02800000 -3.58700000
N 10.89000000 22.71300000 -3.20000000
C 9.61600000 22.31500000 -2.91000000
N 9.54100000 21.00900000 -2.61300000
C 10.81800000 20.58800000 -2.71800000
C 11.37600000 19.29200000 -2.51100000
O 10.81300000 18.25200000 -2.17900000
N 12.72900000 19.29900000 -2.72000000
C 13.49800000 20.36500000 -3.08200000
N 14.83400000 20.16900000 -3.23700000
N 12.98200000 21.57300000 -3.26700000
C 11.65600000 21.60100000 -3.06100000
P 12.76300000 27.42100000 -5.98000000
O 12.79600000 28.57200000 -5.04900000
O 11.88600000 27.54200000 -7.16400000
O 14.27200000 27.08600000 -6.36600000
C 15.27500000 27.10800000 -5.31800000
C 16.22200000 25.94600000 -5.51000000
O 15.44300000 24.75400000 -5.39700000
C 16.94200000 25.82700000 -6.84800000
O 18.34000000 25.51100000 -6.70100000
C 16.11800000 24.76700000 -7.57800000
C 15.85600000 23.83600000 -6.41400000
N 14.67200000 22.97500000 -6.63700000
C 14.80200000 21.62800000 -6.52900000
O 15.92400000 21.17800000 -6.31400000
N 13.72300000 20.84200000 -6.62700000
C 12.51500000 21.37300000 -6.83600000
N 11.41000000 20.57400000 -6.87200000
C 12.34800000 22.74400000 -6.97800000
C 13.47000000 23.55800000 -6.86900000
P 19.33100000 25.77400000 -7.92500000
O 20.70400000 25.97600000 -7.40800000
O 18.76300000 26.85100000 -8.75800000
O 19.30200000 24.41200000 -8.76300000
C 20.10900000 23.28400000 -8.35900000
C 19.74800000 22.16700000 -9.29900000
O 18.35000000 21.96900000 -9.13900000
C 19.92100000 22.40400000 -10.81500000
O 20.98500000 21.63500000 -11.40100000
C 18.53500000 22.06200000 -11.38100000
C 17.96500000 21.20000000 -10.26900000
N 16.49300000 21.22000000 -10.26500000
C 15.66300000 22.28900000 -10.47800000
N 14.36800000 21.95800000 -10.39000000
C 14.38800000 20.64000000 -10.10200000
C 13.30100000 19.74200000 -9.85600000
O 12.09100000 19.96700000 -9.85700000
N 13.75000000 18.46600000 -9.62500000
C 15.04200000 18.04300000 -9.60500000
N 15.25900000 16.71700000 -9.40600000
N 16.06100000 18.88500000 -9.79200000
C 15.66000000 20.15600000 -10.02700000
O 7.45800000 11.88400000 -9.07000000
C 8.25200000 10.96800000 -9.85400000
C 9.71400000 11.14100000 -9.51200000
O 10.14400000 12.45500000 -9.90800000
C 10.10300000 10.98900000 -8.05500000
O 11.29300000 10.22100000 -7.90400000
C 10.25400000 12.43700000 -7.60700000
C 10.89600000 13.04400000 -8.83700000
N 10.57500000 14.48700000 -8.94400000
C 11.55900000 15.43000000 -9.00600000
O 12.72500000 15.06600000 -8.93200000
N 11.24600000 16.71400000 -9.19300000
C 9.98000000 17.08800000 -9.33400000
N 9.69800000 18.39500000 -9.58900000
C 8.93900000 16.16200000 -9.27400000
C 9.26500000 14.82400000 -9.08000000
P 11.60200000 9.51000000 -6.50200000
O 11.66600000 8.03200000 -6.66400000
O 10.64400000 10.01000000 -5.49400000
O 13.05100000 10.09400000 -6.17700000
C 14.10000000 10.02100000 -7.15600000
C 15.11300000 10.99200000 -6.65700000
O 14.55600000 12.30000000 -6.75500000
C 15.44500000 10.80600000 -5.18900000
O 16.83600000 10.56000000 -5.01300000
C 14.93700000 12.10000000 -4.52900000
C 15.05800000 13.08600000 -5.67100000
N 14.03600000 14.14000000 -5.53600000
C 12.71000000 13.95700000 -5.25900000
N 12.01600000 15.10300000 -5.26900000
C 12.93700000 16.04100000 -5.55800000
C 12.76100000 17.45100000 -5.71000000
O 11.72300000 18.11100000 -5.63000000
N 13.95200000 18.07900000 -5.97300000
C 15.17100000 17.48500000 -6.10700000
N 16.24400000 18.29200000 -6.32500000
N 15.32900000 16.16100000 -5.98600000
C 14.17900000 15.49900000 -5.72100000
P 17.47800000 10.38000000 -3.56900000
O 18.66500000 9.51600000 -3.72900000
O 16.42700000 9.94000000 -2.63300000
O 17.95700000 11.86500000 -3.20800000
C 18.96300000 12.53100000 -3.99600000
C 18.93600000 13.95800000 -3.53600000
O 17.59200000 14.40900000 -3.62200000
C 19.25300000 14.13900000 -2.06600000
O 20.65900000 14.21900000 -1.85800000
C 18.52000000 15.41700000 -1.72800000
C 17.54500000 15.60200000 -2.87200000
N 16.14500000 15.69600000 -2.42800000
C 15.50700000 16.88600000 -2.55800000
O 16.16200000 17.84600000 -2.95700000
N 14.20900000 16.98300000 -2.26400000
C 13.53600000 15.91900000 -1.82500000
N 12.20500000 16.01700000 -1.55300000
C 14.16400000 14.68900000 -1.65200000
C 15.50900000 14.58400000 -1.97900000
P 21.30400000 14.52900000 -0.43600000
O 22.69600000 14.08700000 -0.52400000
O 20.48800000 13.95400000 0.65000000
O 21.30600000 16.11700000 -0.36300000
C 22.17700000 16.87600000 -1.21200000
C 21.73900000 18.29200000 -1.02100000
O 20.30500000 18.22500000 -1.04800000
C 22.10100000 18.95900000 0.29300000
O 22.59200000 20.29300000 0.09700000
C 20.82000000 18.82900000 1.12100000
C 19.76500000 18.98500000 0.04600000
N 18.51300000 18.29900000 0.46800000
C 18.36300000 17.06200000 1.03900000
N 17.08000000 16.74400000 1.28100000
C 16.40000000 17.83200000 0.86800000
C 14.99600000 18.09000000 0.88200000
O 14.08200000 17.37800000 1.28000000
N 14.71200000 19.34900000 0.41800000
C 15.60600000 20.26800000 -0.02700000
N 15.13400000 21.49300000 -0.38200000
N 16.91200000 20.01700000 -0.07200000
C 17.23600000 18.79400000 0.38400000
P 22.90400000 21.23800000 1.33900000
O 23.99400000 22.18300000 1.02500000
O 23.10400000 20.39000000 2.53800000
O 21.57700000 22.10700000 1.39000000
C 21.21600000 22.83300000 0.20000000
C 20.10100000 23.78800000 0.48400000
O 18.91300000 23.05400000 0.81600000
C 20.34700000 24.74300000 1.63300000
O 19.73200000 26.01000000 1.41100000
C 19.75200000 23.94500000 2.79100000
C 18.49700000 23.39300000 2.14500000
N 18.07900000 22.09500000 2.75800000
C 18.84700000 21.02000000 3.13300000
N 18.11400000 19.98400000 3.58400000
C 16.84200000 20.42400000 3.48800000
C 15.57700000 19.81700000 3.78600000
N 15.44800000 18.53700000 4.24200000
N 14.48200000 20.55700000 3.59300000
C 14.59700000 21.80100000 3.11800000
N 15.70000000 22.47200000 2.78300000
C 16.79100000 21.70600000 3.00200000
P 19.80300000 27.14100000 2.52600000
O 19.79600000 28.47800000 1.88800000
O 20.95300000 26.85800000 3.42600000
O 18.39600000 26.93900000 3.24100000
C 17.20300000 27.02800000 2.45200000
C 16.03500000 26.95800000 3.38800000
O 15.85600000 25.61200000 3.85000000
C 16.10100000 27.86100000 4.61500000
O 14.89000000 28.60800000 4.75700000
C 16.36800000 26.84400000 5.72400000
C 15.56100000 25.65500000 5.24300000
N 16.10400000 24.37300000 5.75500000
C 17.41100000 23.96700000 5.83000000
N 17.53900000 22.70600000 6.27600000
C 16.26600000 22.30900000 6.48000000
C 15.71500000 21.07300000 6.93300000
N 16.48300000 19.99400000 7.24300000
N 14.38900000 20.99400000 7.03600000
C 13.63600000 22.04100000 6.70800000
N 14.01900000 23.23400000 6.26500000
C 15.36700000 23.29100000 6.17400000
P 14.60400000 29.54500000 6.02000000
O 13.79200000 30.69600000 5.58200000
O 15.85200000 29.83600000 6.74900000
O 13.63300000 28.62800000 6.88500000
C 12.39800000 28.17100000 6.30300000
C 11.80900000 27.21700000 7.30200000
O 12.76700000 26.18400000 7.53400000
C 11.51500000 27.82200000 8.66900000
O 10.10300000 27.95200000 8.89100000
C 12.26700000 26.90600000 9.63000000
C 12.42600000 25.64500000 8.79900000
N 13.60900000 24.85000000 9.20500000
C 13.44200000 23.57500000 9.65600000
O 12.31100000 23.10100000 9.80200000
N 14.55100000 22.82500000 9.91300000
C 15.81500000 23.32100000 9.77700000
O 16.75500000 22.57000000 10.02900000
C 15.97200000 24.64700000 9.36200000
C 17.34500000 25.23900000 9.23400000
C 14.84400000 25.40500000 9.04800000
P 9.51300000 28.53300000 10.26000000
O 8.14500000 29.00700000 9.99800000
O 10.45500000 29.51300000 10.84100000
O 9.39500000 27.22300000 11.15300000
C 8.57600000 26.14800000 10.66400000
C 8.65500000 25.06000000 11.67800000
O 10.00300000 24.61500000 11.76400000
C 8.27200000 25.47100000 13.08700000
O 7.19900000 24.65700000 13.55300000
C 9.58600000 25.30700000 13.86000000
C 10.19000000 24.14800000 13.08900000
N 11.66000000 24.07000000 13.20500000
C 12.25700000 22.88000000 13.48600000
O 11.58300000 21.86600000 13.69100000
N 13.62000000 22.82900000 13.49700000
C 14.40200000 23.91400000 13.22500000
O 15.62500000 23.76400000 13.25200000
C 13.77400000 25.12600000 12.93300000
C 14.56300000 26.35800000 12.61200000
C 12.38500000 25.18700000 12.92600000
P 6.59400000 24.82300000 15.01600000
O 5.16900000 24.42400000 14.98700000
O 6.87000000 26.18900000 15.51100000
O 7.40900000 23.73100000 15.83900000
C 7.33100000 22.35200000 15.43300000
C 8.10000000 21.59800000 16.46100000
O 9.47800000 21.90200000 16.26300000
C 7.76600000 22.04500000 17.87900000
O 7.03600000 21.04100000 18.61100000
C 9.12300000 22.41400000 18.46900000
C 10.10700000 21.74300000 17.52300000
N 11.32800000 22.55600000 17.33100000
C 12.53400000 21.93900000 17.32900000
O 12.56000000 20.73100000 17.57900000
N 13.63900000 22.63900000 17.03500000
C 13.56000000 23.93800000 16.73900000
N 14.68500000 24.62800000 16.40400000
C 12.33800000 24.60900000 16.73600000
C 11.19300000 23.87800000 17.03500000
P 6.50900000 21.32400000 20.09900000
O 5.38700000 20.39700000 20.39600000
O 6.23500000 22.77400000 20.30600000
O 7.76700000 20.92400000 20.99300000
C 8.21600000 19.55900000 21.07300000
C 9.42200000 19.55700000 21.97700000
O 10.49300000 20.26000000 21.31900000
C 9.26700000 20.26700000 23.32500000
O 10.08800000 19.65700000 24.29300000
C 9.75100000 21.67000000 22.99000000
C 10.98800000 21.22600000 22.25600000
N 11.59900000 22.35700000 21.54300000
C 11.03700000 23.54500000 21.15900000
N 11.92100000 24.36200000 20.56600000
C 13.07200000 23.65300000 20.58000000
C 14.37000000 24.00300000 20.10200000
O 14.74700000 25.05700000 19.58500000
N 15.26800000 22.98300000 20.30800000
C 15.02300000 21.77600000 20.89100000
N 16.06600000 20.91400000 21.03800000
N 13.81500000 21.45200000 21.35000000
C 12.90200000 22.42900000 21.15100000
P 9.47700000 18.62700000 25.34000000
O 8.76700000 17.53400000 24.62700000
O 8.67000000 19.40900000 26.31200000
O 10.80700000 18.06700000 26.03400000
C 11.68800000 17.17000000 25.31000000
C 13.11500000 17.57300000 25.59300000
O 13.28400000 18.80400000 24.89300000
C 13.44100000 17.87900000 27.05900000
O 14.34100000 16.93800000 27.67700000
C 13.92800000 19.32200000 27.02500000
C 14.31200000 19.50800000 25.56800000
N 14.14400000 20.93200000 25.17000000
C 15.19900000 21.59500000 24.63000000
O 16.25700000 20.98400000 24.50400000
N 15.06700000 22.87700000 24.25700000
C 13.89800000 23.51000000 24.40400000
N 13.77100000 24.81300000 24.01800000
C 12.79500000 22.86600000 24.96700000
C 12.93500000 21.54000000 25.35900000
P 14.65800000 17.06400000 29.24700000
O 14.86300000 15.71700000 29.82500000
O 13.63300000 17.91200000 29.92000000
O 16.03300000 17.88000000 29.28400000
C 17.24300000 17.32000000 28.74200000
C 18.20800000 18.46400000 28.75800000
O 17.71600000 19.42800000 27.82900000
C 18.23000000 19.23600000 30.05800000
O 18.97800000 18.58300000 31.08400000
C 18.88500000 20.51900000 29.57800000
C 18.27600000 20.69300000 28.18800000
N 17.16400000 21.65900000 28.13900000
C 15.87400000 21.53600000 28.58000000
N 15.12900000 22.61400000 28.30800000
C 15.99000000 23.43600000 27.67300000
C 15.76500000 24.72900000 27.11700000
O 14.71900000 25.37300000 27.06700000
N 16.92600000 25.25700000 26.60400000
C 18.15700000 24.66600000 26.57900000
N 19.20800000 25.38600000 26.09600000
N 18.35000000 23.43800000 27.05300000
C 17.23100000 22.89300000 27.57000000
