14
candidate D (rigidly rotated), angstrom
C -2.48222853 -2.56518755 2.94169172
S -2.61507494 -0.71953278 2.89867382
O -2.43079489 -0.22104525 4.25662124
O -3.80997318 -0.38090438 2.13107682
C -1.12653449 -0.28349299 1.90166736
N -0.77930899 1.13590550 1.97853530
C 0.12850989 0.17256187 2.57331483
H -3.33693477 -2.96738799 3.48028954
H -2.48622865 -2.97782471 1.93606542
H -1.57502507 -2.87956257 3.45120603
H -1.05294922 -0.76326860 0.91888916
H -0.43858663 1.48180209 1.07876371
H 1.07639334 -0.02076996 2.06549343
H 0.17617837 0.18404144 3.66266591
