14
candidate C (rigidly rotated), angstrom
C -0.51026609 -0.12498847 -2.42398104
S -0.70392497 -0.28358454 -0.59786519
O -0.90531016 -1.69696606 -0.27772092
O 0.37053986 0.47288712 0.04030151
C -2.30269707 0.58705140 -0.30121697
N -2.45106898 1.87547650 -0.98364507
C -2.31657820 1.86937764 0.46493669
H 0.42948898 -0.58764255 -2.71741209
H -0.49242255 0.92156975 -2.71566490
H -1.32253399 -0.62786802 -2.94235971
H -3.18417251 -0.06121609 -0.25843374
H -3.42147892 2.02880617 -1.26923791
H -3.20367566 2.09938160 1.05847257
H -1.37656787 2.26349841 0.85102145
