14
candidate B (rigidly rotated), angstrom
C 0.45652719 -1.77751909 -0.61452328
C 0.27107108 -1.93463521 0.85489142
C -0.40109724 -1.06726664 1.62789599
S -0.55540717 -1.31864072 3.40045755
O 0.24112328 -2.45176002 3.81440000
O -0.54671959 -0.05005524 4.09228630
N -2.46382865 -1.94553554 3.48661314
H 1.51825806 -1.72708145 -0.85898948
H -0.02957581 -0.88100191 -0.99087592
H 0.05235280 -2.64195557 -1.14303211
H 0.72685510 -2.81141060 1.31719252
H -0.86454889 -0.17650979 1.20794066
H -2.57672813 -2.77535189 2.90547210
H -3.07811996 -1.20217694 3.15619007
