14
candidate A (rigidly rotated), angstrom
C 2.45609430 -4.09159197 1.52239138
S 1.85551443 -2.77235846 2.66514524
O 1.97206575 -3.26968756 4.03614311
O 2.48425372 -1.51318451 2.27150259
C 0.06561255 -2.71121934 2.25733878
N -0.80984778 -3.65414613 2.95401126
C -0.88167023 -2.24837804 3.31836360
H 3.52335382 -4.23241138 1.67816031
H 2.29266950 -3.80716671 0.48593526
H 1.94911608 -5.03295075 1.71829403
H -0.18191958 -2.53414435 1.20569197
H -0.29057944 -4.18243757 3.66335100
H -0.47206906 -1.95573308 4.28615772
H -1.78946729 -1.72476996 3.01580792
