14
S0 starting structure, angstrom
C -2.10633800 0.32473300 -0.16658100
S -0.28303300 0.64182500 -0.13573000
O 0.19909200 0.64351600 -1.51196500
O -0.04864200 1.78435800 0.74252700
C 0.32466400 -0.88433900 0.70178600
N 1.76963900 -1.07456500 0.57129600
C 0.88902300 -2.01407400 -0.09785800
H -2.60547800 1.18211500 -0.61170000
H -2.49324700 0.18788200 0.83996900
H -2.33952200 -0.55577100 -0.75970200
H -0.12173000 -1.10265900 1.67878200
H 2.16946400 -1.46428900 1.42778900
H 0.80452100 -3.02192100 0.31547800
H 0.87935800 -1.95351200 -1.18658600
