15
QM7-X molecule 7095 (C4H8N2S), DFTB3+MBD-optimized geometry, angstrom
C -0.777052 2.512133 -0.440651
N -1.297449 1.165973 -0.329174
C -0.564813 0.040381 -0.081919
S -1.353564 -1.463162 0.009932
N 0.787201 0.187138 0.080783
C 1.675138 -0.857333 0.341916
C 2.996861 -0.667141 0.497047
H -1.602532 3.189617 -0.651613
H -0.043288 2.605641 -1.253694
H -0.290545 2.846955 0.486638
H -2.296982 1.032460 -0.444076
H 1.187365 1.120632 0.010080
H 1.207366 -1.838177 0.409899
H 3.439967 0.318192 0.425137
H 3.646603 -1.504743 0.699099
