24
Coordinates in angstrom; atoms numbered from 1.
C 19.231 30.482 23.944
C 21.721 26.304 21.716
C 21.278 21.966 19.909
C 19.716 17.901 17.218
C 15.851 15.732 15.569
C 11.699 15.974 12.719
C 9.644 18.209 9.019
C 8.736 20.855 5.034
C 10.241 23.483 1.157
C 11.429 24.028 -3.587
C 15.856 23.836 -6.414
C 17.965 21.200 -10.269
C 10.896 13.044 -8.837
C 15.058 13.086 -5.671
C 17.545 15.602 -2.872
C 19.765 18.985 0.046
C 18.497 23.393 2.145
C 15.561 25.655 5.243
C 12.426 25.645 8.799
C 10.190 24.148 13.089
C 10.107 21.743 17.523
C 10.988 21.226 22.256
C 14.312 19.508 25.568
C 18.276 20.693 28.188
