76
Coordinates in angstrom; atoms numbered from 1.
C 51.502 47.007 54.836
C 57.022 45.836 55.356
C 62.018 44.572 53.194
C 65.192 43.241 49.051
C 65.646 42.719 43.615
C 64.413 45.113 39.057
C 63.015 49.475 35.442
C 68.407 51.830 29.255
C 65.985 50.969 21.571
C 60.152 47.173 19.012
C 62.189 42.294 22.230
C 66.013 40.478 25.565
C 69.909 42.919 28.054
C 75.325 45.147 28.805
C 76.941 49.779 30.686
C 78.428 53.548 33.551
C 86.102 56.903 36.958
C 80.191 61.615 36.658
C 81.965 63.912 30.283
C 80.836 58.580 23.876
C 74.304 56.666 24.955
C 75.605 50.671 23.444
C 75.210 45.010 21.771
C 72.412 40.925 20.073
C 67.844 39.818 17.685
C 64.147 42.470 14.901
C 63.159 46.064 10.787
C 65.046 48.767 5.987
C 69.196 48.789 2.509
C 73.839 46.903 0.605
C 76.518 42.403 -0.649
C 75.756 37.560 -2.358
C 72.289 33.769 -5.226
C 68.999 31.433 -10.593
C 66.202 32.251 -6.217
C 67.143 31.833 -1.328
C 68.645 30.761 3.410
C 73.308 31.178 6.015
C 77.325 34.455 6.488
C 79.168 39.648 6.065
C 78.651 45.424 5.527
C 75.657 49.688 6.671
C 71.295 52.730 8.219
C 67.208 53.996 10.887
C 65.456 53.277 15.954
C 65.949 56.384 22.900
C 60.798 60.075 28.167
C 68.291 55.799 30.245
C 60.568 54.849 34.825
C 58.966 60.259 36.646
C 60.143 64.799 39.378
C 63.119 67.888 42.237
C 68.019 68.537 43.991
C 73.711 68.026 44.082
C 77.461 69.118 40.100
C 81.174 72.955 35.333
C 78.571 68.404 33.655
C 73.908 63.150 35.551
C 71.808 56.483 32.934
C 75.336 56.786 37.306
C 74.974 60.515 43.421
C 70.711 62.312 46.995
C 65.541 62.713 48.233
C 60.283 61.983 47.026
C 57.142 59.262 44.032
C 55.595 55.117 40.311
C 55.669 50.417 38.391
C 57.286 45.028 38.018
C 58.796 41.050 41.019
C 60.163 37.591 45.267
C 59.915 36.661 50.374
C 57.184 38.082 54.963
C 52.823 40.304 57.196
C 47.080 40.621 56.662
C 43.631 36.926 54.915
C 35.314 37.959 58.950
