132
Vancomycin 1AA5 chainA, major altLoc/occupancy only, angstrom
N 10.127 8.826 -4.03
C 10.446 10.141 -4.639
C 8.858 8.812 -3.244
C 7.715 9.246 -4.189
O 7.547 8.688 -5.252
C 8.552 7.426 -2.726
C 9.587 6.788 -1.78
C 9.125 5.395 -1.392
C 9.835 7.62 -0.583
H 10.887 8.557 -3.424
H 11.271 10.077 -5.126
H 10.533 10.801 -3.948
H 9.74 10.396 -5.238
H 8.925 9.44 -2.494
H 8.44 6.837 -3.489
H 7.701 7.46 -2.261
H 10.432 6.702 -2.269
H 8.972 4.876 -2.185
H 8.311 5.457 -0.888
H 9.801 4.971 -0.858
H 10.127 8.494 -0.855
H 10.515 7.21 -0.043
H 9.025 7.698 -0.073
H 10.062 8.136 -4.764
N 6.894 10.223 -3.742
C 5.824 10.725 -4.588
C 4.491 9.963 -4.459
O 3.547 10.291 -5.161
C 5.544 12.254 -4.376
O 6.731 13.006 -4.505
C 4.868 12.532 -3.066
C 3.489 12.76 -3.038
C 5.577 12.564 -1.859
C 2.836 12.923 -1.83
CL 1.135 13.234 -1.833
C 4.904 12.695 -0.669
C 3.523 12.845 -0.655
O 2.866 12.894 0.557
H 7.005 10.548 -2.953
H 6.123 10.618 -5.515
H 4.935 12.542 -5.088
H 7.083 12.839 -5.227
H 3.009 12.801 -3.834
H 6.505 12.495 -1.863
H 5.375 12.684 0.132
N 4.449 8.963 -3.584
C 3.334 8.009 -3.566
C 2.302 8.294 -2.468
O 1.165 8.692 -2.806
C 3.841 6.575 -3.629
C 4.943 6.227 -2.632
O 5.227 6.979 -1.683
N 5.555 5.076 -2.861
H 5.089 8.874 -3.016
H 2.859 8.152 -4.411
H 3.092 5.978 -3.479
H 4.173 6.406 -4.525
H 5.321 4.591 -3.531
H 6.186 4.813 -2.339
N 2.669 8.1 -1.216
C 1.695 8.107 -0.115
C 1.887 6.862 0.723
O 2.988 6.455 1.041
C 1.72 9.379 0.737
C 1.139 9.408 1.973
C 1.145 10.574 2.737
C 1.693 11.737 2.232
O 1.794 12.903 3.004
C 2.275 11.709 0.977
C 2.29 10.55 0.247
H 3.5 7.966 -1.039
H 0.804 8.049 -0.519
H 0.734 8.641 2.309
H 2.69 10.545 -0.592
N 0.734 6.293 1.15
C 0.718 5.365 2.242
C -0.686 5.468 2.895
O -1.628 5.852 2.205
C 0.93 3.872 1.977
C 1.938 3.204 2.649
C 2.017 1.808 2.682
C 1.043 1.086 1.989
O 1.089 -0.286 2.062
C 0.08 1.751 1.263
C 0.018 3.128 1.238
H -0.005 6.492 0.758
H 1.384 5.656 2.9
H 2.586 3.701 3.094
H 0.476 -0.604 1.619
H -0.543 1.26 0.779
H -0.631 3.558 0.73
N -0.841 5.066 4.156
C 0.153 4.642 5.068
O 0.644 10.625 4.037
C -0.746 8.966 5.056
C 1.622 8.643 5.053
C 0.519 9.416 4.702
C 0.211 6.945 5.959
C -0.899 7.756 5.699
C 1.487 7.428 5.657
C 0.072 5.496 6.406
CL 3.25 9.214 4.691
O -0.998 2.532 5.187
C 0.071 3.128 5.32
O -1.15 5.269 7.029
H -1.648 5.066 4.453
H 1.024 4.823 4.657
H -1.493 9.483 4.859
H -1.747 7.477 5.961
H 2.24 6.923 5.867
H 0.808 5.255 7.006
H -1.198 4.483 7.258
N 1.23 2.52 5.592
O 4.706 1.291 1.808
C 4.329 0.915 3.056
C 3.042 1.139 3.548
C 5.301 0.282 3.852
C 5.003 -0.095 5.14
O 5.881 -0.668 5.984
C 3.708 0.139 5.646
C 2.747 0.764 4.868
C 1.363 1.079 5.448
C 1.094 0.328 6.804
O 0.845 -0.905 6.648
O 1.168 0.946 7.841
H 1.904 2.986 5.854
H 0.691 0.779 4.801
H 4.075 1.65 1.428
H 6.148 0.117 3.505
H 6.605 -0.752 5.609
H 3.497 -0.129 6.511
H 1.007 0.445 8.47
