132
Vancomycin 1AA5 chainB, major altLoc/occupancy only, angstrom
N -13.037 5.891 5.853
C -13.354 6.417 7.214
C -11.668 6.227 5.337
C -10.68 5.657 6.376
O -10.897 4.548 6.863
C -11.446 5.565 4.011
C -12.393 6.014 2.858
C -12.226 7.481 2.576
C -12.173 5.19 1.667
H -13.719 6.252 5.204
H -14.244 6.153 7.459
H -13.294 7.375 7.209
H -12.728 6.06 7.849
H -11.56 7.197 5.259
H -11.542 4.607 4.129
H -10.531 5.734 3.736
H -13.316 5.869 3.156
H -12.378 7.981 3.381
H -12.857 7.752 1.906
H -11.334 7.646 2.261
H -12.287 4.264 1.893
H -11.281 5.332 1.34
H -12.805 5.434 0.988
H -13.135 4.887 5.868
N -9.595 6.386 6.606
C -8.669 5.974 7.643
C -7.321 5.484 7.113
O -6.505 5.032 7.901
C -8.491 7.054 8.771
O -9.827 7.384 9.115
C -7.687 8.239 8.256
C -6.305 8.231 8.391
C -8.286 9.252 7.515
C -5.54 9.185 7.786
CL -3.792 9.156 7.959
C -7.501 10.204 6.908
C -6.125 10.166 6.999
O -5.357 11.066 6.297
H -9.442 7.096 6.145
H -9.083 5.2 8.078
H -8.037 6.656 9.543
H -10.213 6.713 9.385
H -5.896 7.568 8.899
H -9.212 9.286 7.431
H -7.906 10.889 6.426
N -7.112 5.548 5.815
C -5.998 4.818 5.152
C -4.911 5.737 4.594
O -3.748 5.59 4.929
C -6.618 3.973 4.021
C -7.785 3.135 4.507
O -8.787 2.996 3.707
N -7.794 2.711 5.722
H -7.638 6.029 5.334
H -5.59 4.213 5.805
H -6.922 4.562 3.313
H -5.939 3.388 3.651
H -7.104 2.825 6.222
H -8.49 2.314 6.034
N -5.305 6.651 3.696
C -4.357 7.502 2.979
C -4.675 7.472 1.489
O -5.801 7.694 1.08
C -4.356 8.956 3.449
C -3.777 9.919 2.663
C -3.797 11.247 3.031
C -4.341 11.623 4.272
O -4.46 12.901 4.633
C -4.877 10.637 5.059
C -4.907 9.32 4.661
H -6.145 6.741 3.537
H -3.457 7.136 3.109
H -3.363 9.671 1.868
H -5.297 8.677 5.207
N -3.61 7.273 0.699
C -3.568 7.559 -0.722
C -2.155 8.154 -0.982
O -1.274 7.96 -0.146
C -3.685 6.352 -1.651
C -4.596 6.395 -2.683
C -4.575 5.431 -3.71
C -3.674 4.397 -3.602
O -3.656 3.446 -4.61
C -2.786 4.305 -2.548
C -2.804 5.296 -1.57
H -2.899 6.953 1.062
H -4.254 8.22 -0.948
H -5.235 7.071 -2.703
H -3.085 2.881 -4.443
H -2.189 3.594 -2.491
H -2.213 5.245 -0.854
N -1.902 8.752 -2.152
C -2.859 9.265 -3.103
O -3.27 12.255 2.245
C -1.886 11.848 0.322
C -4.262 11.822 0.098
C -3.16 11.966 0.892
C -2.897 11.345 -1.809
C -1.763 11.54 -0.991
C -4.142 11.521 -1.24
C -2.749 10.819 -3.21
CL -5.874 11.966 0.776
O -1.604 8.141 -4.814
C -2.725 8.504 -4.422
O -1.529 11.143 -3.827
H -1.073 8.84 -2.362
H -3.75 9.065 -2.748
H -1.128 11.98 0.844
H -0.914 11.456 -1.362
H -4.905 11.435 -1.764
H -3.487 11.157 -3.76
H -1.07 11.583 -3.309
N -3.857 8.19 -5.027
O -6.947 4.049 -3.745
C -6.762 4.9 -4.778
C -5.537 5.58 -4.858
C -7.697 5.012 -5.788
C -7.456 5.863 -6.892
O -8.36 6.001 -7.86
C -6.235 6.54 -6.918
C -5.29 6.418 -5.928
C -3.95 7.169 -6.078
C -3.708 7.803 -7.496
O -3.359 7.033 -8.352
O -3.957 8.963 -7.662
H -4.574 8.603 -4.794
H -3.231 6.521 -5.92
H -7.661 3.657 -3.838
H -8.488 4.525 -5.743
H -9.014 5.537 -7.691
H -6.054 7.1 -7.638
H -3.789 9.17 -8.438
