204
ZIF-8 full framework, one conventional cell, angstrom
Zn 0.0 4.207575 8.41515
Zn 0.0 8.41515 4.207575
Zn 0.0 8.41515 12.622725
Zn 0.0 12.622725 8.41515
Zn 4.207575 0.0 8.41515
Zn 4.207575 8.41515 0.0
Zn 8.41515 0.0 4.207575
Zn 8.41515 0.0 12.622725
Zn 8.41515 4.207575 0.0
Zn 8.41515 12.622725 0.0
Zn 12.622725 0.0 8.41515
Zn 12.622725 8.41515 0.0
N 0.617335404 5.336046615 6.913214028
N 0.617335404 6.913214028 5.336046615
N 0.617335404 9.917085972 11.494253385
N 0.617335404 11.494253385 9.917085972
N 1.501935972 3.079103385 9.032485404
N 1.501935972 7.797814596 13.751196615
N 1.501935972 9.032485404 3.079103385
N 1.501935972 13.751196615 7.797814596
N 3.079103385 1.501935972 9.032485404
N 3.079103385 7.797814596 15.328364028
N 3.079103385 9.032485404 1.501935972
N 3.079103385 15.328364028 7.797814596
N 5.336046615 0.617335404 6.913214028
N 5.336046615 6.913214028 0.617335404
N 5.336046615 9.917085972 16.212964596
N 5.336046615 16.212964596 9.917085972
N 6.913214028 0.617335404 5.336046615
N 6.913214028 5.336046615 0.617335404
N 6.913214028 11.494253385 16.212964596
N 6.913214028 16.212964596 11.494253385
N 7.797814596 1.501935972 13.751196615
N 7.797814596 3.079103385 15.328364028
N 7.797814596 13.751196615 1.501935972
N 7.797814596 15.328364028 3.079103385
N 9.032485404 1.501935972 3.079103385
N 9.032485404 3.079103385 1.501935972
N 9.032485404 13.751196615 15.328364028
N 9.032485404 15.328364028 13.751196615
N 9.917085972 0.617335404 11.494253385
N 9.917085972 5.336046615 16.212964596
N 9.917085972 11.494253385 0.617335404
N 9.917085972 16.212964596 5.336046615
N 11.494253385 0.617335404 9.917085972
N 11.494253385 6.913214028 16.212964596
N 11.494253385 9.917085972 0.617335404
N 11.494253385 16.212964596 6.913214028
N 13.751196615 1.501935972 7.797814596
N 13.751196615 7.797814596 1.501935972
N 13.751196615 9.032485404 15.328364028
N 13.751196615 15.328364028 9.032485404
N 15.328364028 3.079103385 7.797814596
N 15.328364028 7.797814596 3.079103385
N 15.328364028 9.032485404 13.751196615
N 15.328364028 13.751196615 9.032485404
N 16.212964596 5.336046615 9.917085972
N 16.212964596 6.913214028 11.494253385
N 16.212964596 9.917085972 5.336046615
N 16.212964596 11.494253385 6.913214028
C 0.06563817 6.384910911 6.384910911
C 0.06563817 10.445389089 10.445389089
C 2.030239089 2.030239089 8.48078817
C 2.030239089 8.34951183 14.800060911
C 2.030239089 8.48078817 2.030239089
C 2.030239089 14.800060911 8.34951183
C 6.384910911 0.06563817 6.384910911
C 6.384910911 6.384910911 0.06563817
C 6.384910911 10.445389089 16.76466183
C 6.384910911 16.76466183 10.445389089
C 8.34951183 2.030239089 14.800060911
C 8.34951183 14.800060911 2.030239089
C 8.48078817 2.030239089 2.030239089
C 8.48078817 14.800060911 14.800060911
C 10.445389089 0.06563817 10.445389089
C 10.445389089 6.384910911 16.76466183
C 10.445389089 10.445389089 0.06563817
C 10.445389089 16.76466183 6.384910911
C 14.800060911 2.030239089 8.34951183
C 14.800060911 8.34951183 2.030239089
C 14.800060911 8.48078817 14.800060911
C 14.800060911 14.800060911 8.48078817
C 16.76466183 6.384910911 10.445389089
C 16.76466183 10.445389089 6.384910911
H 0.72538593 6.75736545 10.07293455
H 0.72538593 10.07293455 6.75736545
H 1.65778455 1.65778455 7.68976407
H 1.65778455 7.68976407 1.65778455
H 1.65778455 9.14053593 15.17251545
H 1.65778455 15.17251545 9.14053593
H 6.75736545 0.72538593 10.07293455
H 6.75736545 6.75736545 16.10491407
H 6.75736545 10.07293455 0.72538593
H 6.75736545 16.10491407 6.75736545
H 7.68976407 1.65778455 1.65778455
H 7.68976407 15.17251545 15.17251545
H 9.14053593 1.65778455 15.17251545
H 9.14053593 15.17251545 1.65778455
H 10.07293455 0.72538593 6.75736545
H 10.07293455 6.75736545 0.72538593
H 10.07293455 10.07293455 16.10491407
H 10.07293455 16.10491407 10.07293455
H 15.17251545 1.65778455 9.14053593
H 15.17251545 7.68976407 15.17251545
H 15.17251545 9.14053593 1.65778455
H 15.17251545 15.17251545 7.68976407
H 16.10491407 6.75736545 6.75736545
H 16.10491407 10.07293455 10.07293455
C 1.82272149 5.34362025 6.28948311
C 1.82272149 6.28948311 5.34362025
C 1.82272149 10.54081689 11.48667975
C 1.82272149 11.48667975 10.54081689
C 2.12566689 3.07152975 10.23787149
C 2.12566689 6.59242851 13.75877025
C 2.12566689 10.23787149 3.07152975
C 2.12566689 13.75877025 6.59242851
C 3.07152975 2.12566689 10.23787149
C 3.07152975 6.59242851 14.70463311
C 3.07152975 10.23787149 2.12566689
C 3.07152975 14.70463311 6.59242851
C 5.34362025 1.82272149 6.28948311
C 5.34362025 6.28948311 1.82272149
C 5.34362025 10.54081689 15.00757851
C 5.34362025 15.00757851 10.54081689
C 6.28948311 1.82272149 5.34362025
C 6.28948311 5.34362025 1.82272149
C 6.28948311 11.48667975 15.00757851
C 6.28948311 15.00757851 11.48667975
C 6.59242851 2.12566689 13.75877025
C 6.59242851 3.07152975 14.70463311
C 6.59242851 13.75877025 2.12566689
C 6.59242851 14.70463311 3.07152975
C 10.23787149 2.12566689 3.07152975
C 10.23787149 3.07152975 2.12566689
C 10.23787149 13.75877025 14.70463311
C 10.23787149 14.70463311 13.75877025
C 10.54081689 1.82272149 11.48667975
C 10.54081689 5.34362025 15.00757851
C 10.54081689 11.48667975 1.82272149
C 10.54081689 15.00757851 5.34362025
C 11.48667975 1.82272149 10.54081689
C 11.48667975 6.28948311 15.00757851
C 11.48667975 10.54081689 1.82272149
C 11.48667975 15.00757851 6.28948311
C 13.75877025 2.12566689 6.59242851
C 13.75877025 6.59242851 2.12566689
C 13.75877025 10.23787149 14.70463311
C 13.75877025 14.70463311 10.23787149
C 14.70463311 3.07152975 6.59242851
C 14.70463311 6.59242851 3.07152975
C 14.70463311 10.23787149 13.75877025
C 14.70463311 13.75877025 10.23787149
C 15.00757851 5.34362025 10.54081689
C 15.00757851 6.28948311 11.48667975
C 15.00757851 10.54081689 5.34362025
C 15.00757851 11.48667975 6.28948311
H 1.92370329 3.64712601 10.96662348
H 1.92370329 5.86367652 13.18317399
H 1.92370329 10.96662348 3.64712601
H 1.92370329 13.18317399 5.86367652
H 2.55147348 4.76802399 6.49144671
H 2.55147348 6.49144671 4.76802399
H 2.55147348 10.33885329 12.06227601
H 2.55147348 12.06227601 10.33885329
H 3.64712601 1.92370329 10.96662348
H 3.64712601 5.86367652 14.90659671
H 3.64712601 10.96662348 1.92370329
H 3.64712601 14.90659671 5.86367652
H 4.76802399 2.55147348 6.49144671
H 4.76802399 6.49144671 2.55147348
H 4.76802399 10.33885329 14.27882652
H 4.76802399 14.27882652 10.33885329
H 5.86367652 1.92370329 13.18317399
H 5.86367652 3.64712601 14.90659671
H 5.86367652 13.18317399 1.92370329
H 5.86367652 14.90659671 3.64712601
H 6.49144671 2.55147348 4.76802399
H 6.49144671 4.76802399 2.55147348
H 6.49144671 12.06227601 14.27882652
H 6.49144671 14.27882652 12.06227601
H 10.33885329 2.55147348 12.06227601
H 10.33885329 4.76802399 14.27882652
H 10.33885329 12.06227601 2.55147348
H 10.33885329 14.27882652 4.76802399
H 10.96662348 1.92370329 3.64712601
H 10.96662348 3.64712601 1.92370329
H 10.96662348 13.18317399 14.90659671
H 10.96662348 14.90659671 13.18317399
H 12.06227601 2.55147348 10.33885329
H 12.06227601 6.49144671 14.27882652
H 12.06227601 10.33885329 2.55147348
H 12.06227601 14.27882652 6.49144671
H 13.18317399 1.92370329 5.86367652
H 13.18317399 5.86367652 1.92370329
H 13.18317399 10.96662348 14.90659671
H 13.18317399 14.90659671 10.96662348
H 14.27882652 4.76802399 10.33885329
H 14.27882652 6.49144671 12.06227601
H 14.27882652 10.33885329 4.76802399
H 14.27882652 12.06227601 6.49144671
H 14.90659671 3.64712601 5.86367652
H 14.90659671 5.86367652 3.64712601
H 14.90659671 10.96662348 13.18317399
H 14.90659671 13.18317399 10.96662348
