424
MOF-5 full framework, one conventional cell, angstrom
Zn 5.3321291078 5.3321291078 7.5802208922
Zn 5.3321291078 5.3321291078 18.2444791078
Zn 5.3321291078 7.5802208922 5.3321291078
Zn 5.3321291078 7.5802208922 20.4925708922
Zn 5.3321291078 18.2444791078 5.3321291078
Zn 5.3321291078 18.2444791078 20.4925708922
Zn 5.3321291078 20.4925708922 7.5802208922
Zn 5.3321291078 20.4925708922 18.2444791078
Zn 7.5802208922 5.3321291078 5.3321291078
Zn 7.5802208922 5.3321291078 20.4925708922
Zn 7.5802208922 7.5802208922 7.5802208922
Zn 7.5802208922 7.5802208922 18.2444791078
Zn 7.5802208922 18.2444791078 7.5802208922
Zn 7.5802208922 18.2444791078 18.2444791078
Zn 7.5802208922 20.4925708922 5.3321291078
Zn 7.5802208922 20.4925708922 20.4925708922
Zn 18.2444791078 5.3321291078 5.3321291078
Zn 18.2444791078 5.3321291078 20.4925708922
Zn 18.2444791078 7.5802208922 7.5802208922
Zn 18.2444791078 7.5802208922 18.2444791078
Zn 18.2444791078 18.2444791078 7.5802208922
Zn 18.2444791078 18.2444791078 18.2444791078
Zn 18.2444791078 20.4925708922 5.3321291078
Zn 18.2444791078 20.4925708922 20.4925708922
Zn 20.4925708922 5.3321291078 7.5802208922
Zn 20.4925708922 5.3321291078 18.2444791078
Zn 20.4925708922 7.5802208922 5.3321291078
Zn 20.4925708922 7.5802208922 20.4925708922
Zn 20.4925708922 18.2444791078 5.3321291078
Zn 20.4925708922 18.2444791078 20.4925708922
Zn 20.4925708922 20.4925708922 7.5802208922
Zn 20.4925708922 20.4925708922 18.2444791078
O 6.456175 6.456175 6.456175
O 6.456175 6.456175 19.368525
O 6.456175 19.368525 6.456175
O 6.456175 19.368525 19.368525
O 19.368525 6.456175 6.456175
O 19.368525 6.456175 19.368525
O 19.368525 19.368525 6.456175
O 19.368525 19.368525 19.368525
O 3.456636095 5.668779897 7.243570103
O 3.456636095 5.668779897 18.581129897
O 3.456636095 7.243570103 5.668779897
O 3.456636095 7.243570103 20.155920103
O 3.456636095 18.581129897 5.668779897
O 3.456636095 18.581129897 20.155920103
O 3.456636095 20.155920103 7.243570103
O 3.456636095 20.155920103 18.581129897
O 5.668779897 3.456636095 7.243570103
O 5.668779897 3.456636095 18.581129897
O 5.668779897 5.668779897 9.455713905
O 5.668779897 5.668779897 16.368986095
O 5.668779897 7.243570103 3.456636095
O 5.668779897 7.243570103 22.368063905
O 5.668779897 9.455713905 5.668779897
O 5.668779897 9.455713905 20.155920103
O 5.668779897 16.368986095 5.668779897
O 5.668779897 16.368986095 20.155920103
O 5.668779897 18.581129897 3.456636095
O 5.668779897 18.581129897 22.368063905
O 5.668779897 20.155920103 9.455713905
O 5.668779897 20.155920103 16.368986095
O 5.668779897 22.368063905 7.243570103
O 5.668779897 22.368063905 18.581129897
O 7.243570103 3.456636095 5.668779897
O 7.243570103 3.456636095 20.155920103
O 7.243570103 5.668779897 3.456636095
O 7.243570103 5.668779897 22.368063905
O 7.243570103 7.243570103 9.455713905
O 7.243570103 7.243570103 16.368986095
O 7.243570103 9.455713905 7.243570103
O 7.243570103 9.455713905 18.581129897
O 7.243570103 16.368986095 7.243570103
O 7.243570103 16.368986095 18.581129897
O 7.243570103 18.581129897 9.455713905
O 7.243570103 18.581129897 16.368986095
O 7.243570103 20.155920103 3.456636095
O 7.243570103 20.155920103 22.368063905
O 7.243570103 22.368063905 5.668779897
O 7.243570103 22.368063905 20.155920103
O 9.455713905 5.668779897 5.668779897
O 9.455713905 5.668779897 20.155920103
O 9.455713905 7.243570103 7.243570103
O 9.455713905 7.243570103 18.581129897
O 9.455713905 18.581129897 7.243570103
O 9.455713905 18.581129897 18.581129897
O 9.455713905 20.155920103 5.668779897
O 9.455713905 20.155920103 20.155920103
O 16.368986095 5.668779897 5.668779897
O 16.368986095 5.668779897 20.155920103
O 16.368986095 7.243570103 7.243570103
O 16.368986095 7.243570103 18.581129897
O 16.368986095 18.581129897 7.243570103
O 16.368986095 18.581129897 18.581129897
O 16.368986095 20.155920103 5.668779897
O 16.368986095 20.155920103 20.155920103
O 18.581129897 3.456636095 5.668779897
O 18.581129897 3.456636095 20.155920103
O 18.581129897 5.668779897 3.456636095
O 18.581129897 5.668779897 22.368063905
O 18.581129897 7.243570103 9.455713905
O 18.581129897 7.243570103 16.368986095
O 18.581129897 9.455713905 7.243570103
O 18.581129897 9.455713905 18.581129897
O 18.581129897 16.368986095 7.243570103
O 18.581129897 16.368986095 18.581129897
O 18.581129897 18.581129897 9.455713905
O 18.581129897 18.581129897 16.368986095
O 18.581129897 20.155920103 3.456636095
O 18.581129897 20.155920103 22.368063905
O 18.581129897 22.368063905 5.668779897
O 18.581129897 22.368063905 20.155920103
O 20.155920103 3.456636095 7.243570103
O 20.155920103 3.456636095 18.581129897
O 20.155920103 5.668779897 9.455713905
O 20.155920103 5.668779897 16.368986095
O 20.155920103 7.243570103 3.456636095
O 20.155920103 7.243570103 22.368063905
O 20.155920103 9.455713905 5.668779897
O 20.155920103 9.455713905 20.155920103
O 20.155920103 16.368986095 5.668779897
O 20.155920103 16.368986095 20.155920103
O 20.155920103 18.581129897 3.456636095
O 20.155920103 18.581129897 22.368063905
O 20.155920103 20.155920103 9.455713905
O 20.155920103 20.155920103 16.368986095
O 20.155920103 22.368063905 7.243570103
O 20.155920103 22.368063905 18.581129897
O 22.368063905 5.668779897 7.243570103
O 22.368063905 5.668779897 18.581129897
O 22.368063905 7.243570103 5.668779897
O 22.368063905 7.243570103 20.155920103
O 22.368063905 18.581129897 5.668779897
O 22.368063905 18.581129897 20.155920103
O 22.368063905 20.155920103 7.243570103
O 22.368063905 20.155920103 18.581129897
C 2.878937556 6.456175 6.456175
C 2.878937556 6.456175 19.368525
C 2.878937556 19.368525 6.456175
C 2.878937556 19.368525 19.368525
C 6.456175 2.878937556 6.456175
C 6.456175 2.878937556 19.368525
C 6.456175 6.456175 2.878937556
C 6.456175 6.456175 10.033412444
C 6.456175 6.456175 15.791287556
C 6.456175 6.456175 22.945762444
C 6.456175 10.033412444 6.456175
C 6.456175 10.033412444 19.368525
C 6.456175 15.791287556 6.456175
C 6.456175 15.791287556 19.368525
C 6.456175 19.368525 2.878937556
C 6.456175 19.368525 10.033412444
C 6.456175 19.368525 15.791287556
C 6.456175 19.368525 22.945762444
C 6.456175 22.945762444 6.456175
C 6.456175 22.945762444 19.368525
C 10.033412444 6.456175 6.456175
C 10.033412444 6.456175 19.368525
C 10.033412444 19.368525 6.456175
C 10.033412444 19.368525 19.368525
C 15.791287556 6.456175 6.456175
C 15.791287556 6.456175 19.368525
C 15.791287556 19.368525 6.456175
C 15.791287556 19.368525 19.368525
C 19.368525 2.878937556 6.456175
C 19.368525 2.878937556 19.368525
C 19.368525 6.456175 2.878937556
C 19.368525 6.456175 10.033412444
C 19.368525 6.456175 15.791287556
C 19.368525 6.456175 22.945762444
C 19.368525 10.033412444 6.456175
C 19.368525 10.033412444 19.368525
C 19.368525 15.791287556 6.456175
C 19.368525 15.791287556 19.368525
C 19.368525 19.368525 2.878937556
C 19.368525 19.368525 10.033412444
C 19.368525 19.368525 15.791287556
C 19.368525 19.368525 22.945762444
C 19.368525 22.945762444 6.456175
C 19.368525 22.945762444 19.368525
C 22.945762444 6.456175 6.456175
C 22.945762444 6.456175 19.368525
C 22.945762444 19.368525 6.456175
C 22.945762444 19.368525 19.368525
C 1.385495155 6.456175 6.456175
C 1.385495155 6.456175 19.368525
C 1.385495155 19.368525 6.456175
C 1.385495155 19.368525 19.368525
C 6.456175 1.385495155 6.456175
C 6.456175 1.385495155 19.368525
C 6.456175 6.456175 1.385495155
C 6.456175 6.456175 11.526854845
C 6.456175 6.456175 14.297845155
C 6.456175 6.456175 24.439204845
C 6.456175 11.526854845 6.456175
C 6.456175 11.526854845 19.368525
C 6.456175 14.297845155 6.456175
C 6.456175 14.297845155 19.368525
C 6.456175 19.368525 1.385495155
C 6.456175 19.368525 11.526854845
C 6.456175 19.368525 14.297845155
C 6.456175 19.368525 24.439204845
C 6.456175 24.439204845 6.456175
C 6.456175 24.439204845 19.368525
C 11.526854845 6.456175 6.456175
C 11.526854845 6.456175 19.368525
C 11.526854845 19.368525 6.456175
C 11.526854845 19.368525 19.368525
C 14.297845155 6.456175 6.456175
C 14.297845155 6.456175 19.368525
C 14.297845155 19.368525 6.456175
C 14.297845155 19.368525 19.368525
C 19.368525 1.385495155 6.456175
C 19.368525 1.385495155 19.368525
C 19.368525 6.456175 1.385495155
C 19.368525 6.456175 11.526854845
C 19.368525 6.456175 14.297845155
C 19.368525 6.456175 24.439204845
C 19.368525 11.526854845 6.456175
C 19.368525 11.526854845 19.368525
C 19.368525 14.297845155 6.456175
C 19.368525 14.297845155 19.368525
C 19.368525 19.368525 1.385495155
C 19.368525 19.368525 11.526854845
C 19.368525 19.368525 14.297845155
C 19.368525 19.368525 24.439204845
C 19.368525 24.439204845 6.456175
C 19.368525 24.439204845 19.368525
C 24.439204845 6.456175 6.456175
C 24.439204845 6.456175 19.368525
C 24.439204845 19.368525 6.456175
C 24.439204845 19.368525 19.368525
C 0.685129291 5.626427389 7.285922611
C 0.685129291 5.626427389 18.538777389
C 0.685129291 7.285922611 5.626427389
C 0.685129291 7.285922611 20.198272611
C 0.685129291 18.538777389 5.626427389
C 0.685129291 18.538777389 20.198272611
C 0.685129291 20.198272611 7.285922611
C 0.685129291 20.198272611 18.538777389
C 5.626427389 0.685129291 7.285922611
C 5.626427389 0.685129291 18.538777389
C 5.626427389 5.626427389 12.227220709
C 5.626427389 5.626427389 13.597479291
C 5.626427389 7.285922611 0.685129291
C 5.626427389 7.285922611 25.139570709
C 5.626427389 12.227220709 5.626427389
C 5.626427389 12.227220709 20.198272611
C 5.626427389 13.597479291 5.626427389
C 5.626427389 13.597479291 20.198272611
C 5.626427389 18.538777389 0.685129291
C 5.626427389 18.538777389 25.139570709
C 5.626427389 20.198272611 12.227220709
C 5.626427389 20.198272611 13.597479291
C 5.626427389 25.139570709 7.285922611
C 5.626427389 25.139570709 18.538777389
C 7.285922611 0.685129291 5.626427389
C 7.285922611 0.685129291 20.198272611
C 7.285922611 5.626427389 0.685129291
C 7.285922611 5.626427389 25.139570709
C 7.285922611 7.285922611 12.227220709
C 7.285922611 7.285922611 13.597479291
C 7.285922611 12.227220709 7.285922611
C 7.285922611 12.227220709 18.538777389
C 7.285922611 13.597479291 7.285922611
C 7.285922611 13.597479291 18.538777389
C 7.285922611 18.538777389 12.227220709
C 7.285922611 18.538777389 13.597479291
C 7.285922611 20.198272611 0.685129291
C 7.285922611 20.198272611 25.139570709
C 7.285922611 25.139570709 5.626427389
C 7.285922611 25.139570709 20.198272611
C 12.227220709 5.626427389 5.626427389
C 12.227220709 5.626427389 20.198272611
C 12.227220709 7.285922611 7.285922611
C 12.227220709 7.285922611 18.538777389
C 12.227220709 18.538777389 7.285922611
C 12.227220709 18.538777389 18.538777389
C 12.227220709 20.198272611 5.626427389
C 12.227220709 20.198272611 20.198272611
C 13.597479291 5.626427389 5.626427389
C 13.597479291 5.626427389 20.198272611
C 13.597479291 7.285922611 7.285922611
C 13.597479291 7.285922611 18.538777389
C 13.597479291 18.538777389 7.285922611
C 13.597479291 18.538777389 18.538777389
C 13.597479291 20.198272611 5.626427389
C 13.597479291 20.198272611 20.198272611
C 18.538777389 0.685129291 5.626427389
C 18.538777389 0.685129291 20.198272611
C 18.538777389 5.626427389 0.685129291
C 18.538777389 5.626427389 25.139570709
C 18.538777389 7.285922611 12.227220709
C 18.538777389 7.285922611 13.597479291
C 18.538777389 12.227220709 7.285922611
C 18.538777389 12.227220709 18.538777389
C 18.538777389 13.597479291 7.285922611
C 18.538777389 13.597479291 18.538777389
C 18.538777389 18.538777389 12.227220709
C 18.538777389 18.538777389 13.597479291
C 18.538777389 20.198272611 0.685129291
C 18.538777389 20.198272611 25.139570709
C 18.538777389 25.139570709 5.626427389
C 18.538777389 25.139570709 20.198272611
C 20.198272611 0.685129291 7.285922611
C 20.198272611 0.685129291 18.538777389
C 20.198272611 5.626427389 12.227220709
C 20.198272611 5.626427389 13.597479291
C 20.198272611 7.285922611 0.685129291
C 20.198272611 7.285922611 25.139570709
C 20.198272611 12.227220709 5.626427389
C 20.198272611 12.227220709 20.198272611
C 20.198272611 13.597479291 5.626427389
C 20.198272611 13.597479291 20.198272611
C 20.198272611 18.538777389 0.685129291
C 20.198272611 18.538777389 25.139570709
C 20.198272611 20.198272611 12.227220709
C 20.198272611 20.198272611 13.597479291
C 20.198272611 25.139570709 7.285922611
C 20.198272611 25.139570709 18.538777389
C 25.139570709 5.626427389 7.285922611
C 25.139570709 5.626427389 18.538777389
C 25.139570709 7.285922611 5.626427389
C 25.139570709 7.285922611 20.198272611
C 25.139570709 18.538777389 5.626427389
C 25.139570709 18.538777389 20.198272611
C 25.139570709 20.198272611 7.285922611
C 25.139570709 20.198272611 18.538777389
H 1.14403421 5.05389379 7.85845621
H 1.14403421 5.05389379 17.96624379
H 1.14403421 7.85845621 5.05389379
H 1.14403421 7.85845621 20.77080621
H 1.14403421 17.96624379 5.05389379
H 1.14403421 17.96624379 20.77080621
H 1.14403421 20.77080621 7.85845621
H 1.14403421 20.77080621 17.96624379
H 5.05389379 1.14403421 7.85845621
H 5.05389379 1.14403421 17.96624379
H 5.05389379 5.05389379 11.76831579
H 5.05389379 5.05389379 14.05638421
H 5.05389379 7.85845621 1.14403421
H 5.05389379 7.85845621 24.68066579
H 5.05389379 11.76831579 5.05389379
H 5.05389379 11.76831579 20.77080621
H 5.05389379 14.05638421 5.05389379
H 5.05389379 14.05638421 20.77080621
H 5.05389379 17.96624379 1.14403421
H 5.05389379 17.96624379 24.68066579
H 5.05389379 20.77080621 11.76831579
H 5.05389379 20.77080621 14.05638421
H 5.05389379 24.68066579 7.85845621
H 5.05389379 24.68066579 17.96624379
H 7.85845621 1.14403421 5.05389379
H 7.85845621 1.14403421 20.77080621
H 7.85845621 5.05389379 1.14403421
H 7.85845621 5.05389379 24.68066579
H 7.85845621 7.85845621 11.76831579
H 7.85845621 7.85845621 14.05638421
H 7.85845621 11.76831579 7.85845621
H 7.85845621 11.76831579 17.96624379
H 7.85845621 14.05638421 7.85845621
H 7.85845621 14.05638421 17.96624379
H 7.85845621 17.96624379 11.76831579
H 7.85845621 17.96624379 14.05638421
H 7.85845621 20.77080621 1.14403421
H 7.85845621 20.77080621 24.68066579
H 7.85845621 24.68066579 5.05389379
H 7.85845621 24.68066579 20.77080621
H 11.76831579 5.05389379 5.05389379
H 11.76831579 5.05389379 20.77080621
H 11.76831579 7.85845621 7.85845621
H 11.76831579 7.85845621 17.96624379
H 11.76831579 17.96624379 7.85845621
H 11.76831579 17.96624379 17.96624379
H 11.76831579 20.77080621 5.05389379
H 11.76831579 20.77080621 20.77080621
H 14.05638421 5.05389379 5.05389379
H 14.05638421 5.05389379 20.77080621
H 14.05638421 7.85845621 7.85845621
H 14.05638421 7.85845621 17.96624379
H 14.05638421 17.96624379 7.85845621
H 14.05638421 17.96624379 17.96624379
H 14.05638421 20.77080621 5.05389379
H 14.05638421 20.77080621 20.77080621
H 17.96624379 1.14403421 5.05389379
H 17.96624379 1.14403421 20.77080621
H 17.96624379 5.05389379 1.14403421
H 17.96624379 5.05389379 24.68066579
H 17.96624379 7.85845621 11.76831579
H 17.96624379 7.85845621 14.05638421
H 17.96624379 11.76831579 7.85845621
H 17.96624379 11.76831579 17.96624379
H 17.96624379 14.05638421 7.85845621
H 17.96624379 14.05638421 17.96624379
H 17.96624379 17.96624379 11.76831579
H 17.96624379 17.96624379 14.05638421
H 17.96624379 20.77080621 1.14403421
H 17.96624379 20.77080621 24.68066579
H 17.96624379 24.68066579 5.05389379
H 17.96624379 24.68066579 20.77080621
H 20.77080621 1.14403421 7.85845621
H 20.77080621 1.14403421 17.96624379
H 20.77080621 5.05389379 11.76831579
H 20.77080621 5.05389379 14.05638421
H 20.77080621 7.85845621 1.14403421
H 20.77080621 7.85845621 24.68066579
H 20.77080621 11.76831579 5.05389379
H 20.77080621 11.76831579 20.77080621
H 20.77080621 14.05638421 5.05389379
H 20.77080621 14.05638421 20.77080621
H 20.77080621 17.96624379 1.14403421
H 20.77080621 17.96624379 24.68066579
H 20.77080621 20.77080621 11.76831579
H 20.77080621 20.77080621 14.05638421
H 20.77080621 24.68066579 7.85845621
H 20.77080621 24.68066579 17.96624379
H 24.68066579 5.05389379 7.85845621
H 24.68066579 5.05389379 17.96624379
H 24.68066579 7.85845621 5.05389379
H 24.68066579 7.85845621 20.77080621
H 24.68066579 17.96624379 5.05389379
H 24.68066579 17.96624379 20.77080621
H 24.68066579 20.77080621 7.85845621
H 24.68066579 20.77080621 17.96624379
