32
MOF-5 Zn sublattice, one conventional cell, angstrom
Zn 5.3321291078 5.3321291078 7.5802208922
Zn 5.3321291078 5.3321291078 18.2444791078
Zn 5.3321291078 7.5802208922 5.3321291078
Zn 5.3321291078 7.5802208922 20.4925708922
Zn 5.3321291078 18.2444791078 5.3321291078
Zn 5.3321291078 18.2444791078 20.4925708922
Zn 5.3321291078 20.4925708922 7.5802208922
Zn 5.3321291078 20.4925708922 18.2444791078
Zn 7.5802208922 5.3321291078 5.3321291078
Zn 7.5802208922 5.3321291078 20.4925708922
Zn 7.5802208922 7.5802208922 7.5802208922
Zn 7.5802208922 7.5802208922 18.2444791078
Zn 7.5802208922 18.2444791078 7.5802208922
Zn 7.5802208922 18.2444791078 18.2444791078
Zn 7.5802208922 20.4925708922 5.3321291078
Zn 7.5802208922 20.4925708922 20.4925708922
Zn 18.2444791078 5.3321291078 5.3321291078
Zn 18.2444791078 5.3321291078 20.4925708922
Zn 18.2444791078 7.5802208922 7.5802208922
Zn 18.2444791078 7.5802208922 18.2444791078
Zn 18.2444791078 18.2444791078 7.5802208922
Zn 18.2444791078 18.2444791078 18.2444791078
Zn 18.2444791078 20.4925708922 5.3321291078
Zn 18.2444791078 20.4925708922 20.4925708922
Zn 20.4925708922 5.3321291078 7.5802208922
Zn 20.4925708922 5.3321291078 18.2444791078
Zn 20.4925708922 7.5802208922 5.3321291078
Zn 20.4925708922 7.5802208922 20.4925708922
Zn 20.4925708922 18.2444791078 5.3321291078
Zn 20.4925708922 18.2444791078 20.4925708922
Zn 20.4925708922 20.4925708922 7.5802208922
Zn 20.4925708922 20.4925708922 18.2444791078
