66

C      46.37160615      50.00718976      59.33298516 
H      45.83218342      49.36103178      58.62369455 
H      47.44521947      49.89224243      59.10349764 
C      46.79096803      50.50308019      61.74911413 
H      47.88641631      50.43011460      61.64521252 
H      46.55578249      50.23806351      62.79049942 
C      46.11246342      49.53855409      60.77019972 
H      45.02124148      49.58655835      60.94396453 
C      46.56362432      48.09533420      60.99988702 
H      46.05678406      47.40487308      60.31135546 
H      46.34724773      47.76530516      62.02542902 
H      47.64707607      47.99151380      60.83897272 
C      45.95294344      51.46463142      59.12310047 
H      44.86406108      51.54385227      59.27327616 
H      46.13929873      51.75169749      58.07988400 
C      48.78059024      57.36241445      59.04474568 
H      47.92955831      57.72261779      58.46337047 
C      47.14312912      54.27414658      58.50513177 
H      46.89287468      55.26495409      58.11128009 
H      46.87986515      53.55346441      57.72236381 
H      48.22658271      54.23360281      58.66555699 
H      45.00834621      60.92700533      59.22543903 
H      44.50659263      53.77604835      58.66522345 
P      46.91037190      54.32396249      62.53905066 
O      47.92743020      54.99998971      63.37885756 
O      47.16906857      52.73670715      62.45516772 
N      46.90362680      54.80693272      60.92524029 
C      48.55501497      56.56038318      60.17038278 
C      47.12030514      56.23815162      60.57496072 
H      46.49640408      56.43167221      59.69096783 
C      46.67967982      52.42258725      60.08933793 
H      47.76742498      52.29879015      59.94651050 
C      46.67877724      58.67012590      61.17525191 
C      46.39639002      51.95750973      61.51709990 
H      45.32070100      52.07823249      61.74960640 
C      46.58951811      57.23991522      61.64232799 
H      45.53504858      56.99164144      61.83401113 
H      47.14504241      57.10829735      62.57895830 
C      45.23965617      54.45680262      63.27938710 
H      45.01787518      55.53067977      63.34389178 
H      44.49511758      54.02977136      62.59141777 
C      46.38350523      53.93575526      59.80476292 
C      45.15498759      53.80286309      64.66298555 
H      45.33573885      52.72157754      64.60664388 
H      44.16170025      53.95748173      65.10555934 
H      45.90321491      54.22953008      65.34197333 
C      47.77294142      59.47313990      61.52193232 
H      48.55624727      59.05819420      62.15714672 
C      45.68902268      59.21415871      60.34543992 
H      44.82395971      58.60527948      60.07248490 
C      45.79064882      60.52076246      59.86719387 
C      46.88972675      61.30806001      60.21595062 
H      46.97200592      62.32965220      59.84491124 
C      47.87907750      60.78014807      61.04738053 
H      48.74032674      61.38785197      61.32543180 
C      44.87810556      54.20999983      59.60220276 
H      44.27067657      53.81034881      60.42455428 
H      44.69645599      55.29199001      59.55549925 
C      50.07363554      57.72012039      58.66521007 
H      50.22715782      58.34675762      57.78637681 
H      52.17922983      57.55011829      59.11869170 
C      49.65461691      56.12204534      60.91703911 
H      49.48792632      55.51350200      61.80606171 
C      50.94955806      56.47818853      60.53755814 
H      51.79633711      56.13043530      61.13012547 
C      51.16567635      57.27581343      59.41199356 
