17
QM7-X native coordinates in angstrom (molecule 7035, Geom-m7035-i1-c1-d1)
C -1.90054 1.06162 0.783677
C -0.305438 0.860557 0.705566
S 0.310138 -0.525618 -0.368197
O -0.20864 -0.458191 -1.741587
O 1.76362 -0.439046 -0.140472
C -0.176906 -2.03001 0.58767
C 0.431206 2.049475 0.217889
H -2.365457 -0.01567 0.920854
H -2.451917 1.690238 -0.147396
H -1.990906 1.734723 1.860214
H 0.047603 0.597186 1.730193
H -1.25553 -2.129837 0.686531
H 0.293829 -1.912665 1.67474
H 0.201965 -2.886695 0.171696
H -0.218622 2.158903 -0.749932
H 1.530289 1.755146 0.036558
H 0.516754 2.946604 0.995353
