16
QM7-X native coordinates in angstrom (molecule 7040, Geom-m7040-i1-c1-d2)
C -1.680891 0.220156 -1.196162
C -0.130856 0.305128 -1.064731
S 0.390479 -0.134342 0.577081
O -0.263321 -1.297735 1.101588
O 1.780886 0.138193 0.677982
N -0.482336 1.312685 1.656896
C 0.319414 -0.561274 -2.202086
H -2.259853 0.69594 -0.355123
H -2.374918 -0.815196 -1.655725
H -1.857481 0.92105 -2.084573
H 0.156667 1.32773 -1.363299
H -1.113251 0.895349 2.362693
H 0.385702 1.731087 2.189177
H 0.063164 -1.571948 -1.76296
H 1.411731 -0.346496 -2.551546
H -0.469593 -0.384558 -3.068901
