57

C      29.02017577      44.49989876      35.79756574 
C      26.35245204      44.14822419      34.31220168 
C      28.38119805      41.74420657      34.43402701 
C      29.04408868      42.18385502      33.11421989 
C      27.24335256      40.74984674      34.13314366 
C      29.42754681      41.06217798      35.33652013 
C      23.87547265      42.84752254      36.93867527 
O      26.95469318      42.61855095      36.70550757 
Si      27.67776150      43.27869950      35.31756589 
H      29.78745456      44.03396350      36.42925998 
H      26.79623385      44.68866880      33.46484367 
H      25.61024376      43.44289370      33.91706223 
H      28.32957882      42.66886811      32.43327517 
H      29.87793941      42.88129034      33.28010162 
H      29.45446998      41.30845821      32.58414374 
H      26.48926933      41.17677772      33.45657214 
H      27.64687615      39.84877586      33.64209881 
H      26.73032293      40.42810620      35.04958361 
H      28.99562224      40.75184785      36.29810545 
H      29.82356559      40.15856850      34.84396666 
H      30.28407049      41.71877022      35.54602717 
H      23.21931899      43.67050081      36.61188511 
H      24.34133888      42.40339347      36.05094664 
C      26.27961353      43.30774787      37.65102050 
C      24.94403361      43.34032691      37.84680937 
C      28.05799883      43.47342822      39.32204607 
C      23.86453239      43.85600909      40.05559672 
C      21.93967246      42.66621189      40.70042792 
N      24.70919324      44.16086786      39.01026455 
N      26.99778317      44.12504952      38.55097537 
O      23.94157232      44.33876328      41.17634376 
O      22.89585738      42.97408398      39.67299529 
H      26.16164728      44.77305352      40.40057829 
H      28.68947065      44.23063735      39.80228990 
H      27.66323060      42.79196555      40.09895563 
H      28.68390495      42.89093842      38.63652803 
H      23.23470215      42.09101882      37.40811650 
H      21.24447463      41.95563649      40.24319087 
H      22.43063322      42.21412371      41.57129581 
H      21.40601277      43.56942733      41.02249360 
H      24.68290850      46.18574698      37.19257545 
H      25.62729739      47.68706029      37.25636752 
H      26.42968656      46.16066521      36.84285483 
H      28.58822486      45.33704540      36.36067394 
H      29.51420789      44.90723808      34.90432417 
H      25.82097107      44.88053099      34.93463322 
C      25.97481281      44.86673088      39.32057956 
C      25.95190801      46.38517583      38.96606828 
C      24.88188464      47.09220611      39.81330505 
C      25.65533008      46.61062970      37.47636419 
C      27.33658761      46.95978140      39.30905457 
H      23.87321351      46.73564726      39.56800408 
H      25.03860400      46.92562889      40.88690401 
H      24.91112717      48.17436893      39.62327139 
H      28.12470645      46.48599625      38.70883271 
H      27.57854275      46.81520172      40.37252452 
H      27.36150624      48.03950326      39.10780948 
