16
QM7-X native coordinates in angstrom (molecule 7040, Geom-m7040-i1-c1-d1)
C -1.876224 -0.378435 -1.209637
C -0.402347 0.347413 -1.047409
S 0.339634 -0.144834 0.595316
O -0.638921 -1.15968 1.304176
O 1.784062 -0.268811 0.605201
N -0.090017 1.562 1.590554
C 0.702774 -0.000976 -2.346096
H -2.784706 -0.183555 -0.23654
H -1.942884 -1.562878 -1.324983
H -2.362427 -0.190338 -2.152456
H -0.705651 1.627764 -1.003784
H -0.614235 1.245286 2.489359
H 0.890444 2.084147 1.772008
H 0.85479 -1.202924 -2.326562
H 1.774883 0.721519 -2.230379
H 0.379418 0.464243 -3.301756
