79

C      38.26957830      30.24949491      30.70035432 
C      38.43317791      29.01023880      30.07901788 
H      37.74956480      30.32422058      31.65483456 
H      38.03473157      28.10954044      30.54629235 
H      36.34730429      34.78406876      24.32769949 
P      40.74986358      36.09421865      34.86818267 
O      38.76505216      35.95120587      29.33904833 
O      38.82718962      34.02579478      32.76938637 
C      40.38804511      35.20604876      31.14359991 
C      39.63669368      35.22969128      29.78615294 
C      40.38028911      34.04729882      29.33297161 
C      39.66551884      34.87186980      32.48161922 
C      40.42049062      35.89258569      33.18040285 
C      39.06175073      34.71129846      26.38008540 
C      38.14851717      35.19035667      25.44478258 
C      37.06330043      34.40193353      25.05528372 
C      36.88668899      33.13165787      25.60487506 
C      37.79644401      32.64338620      26.54309973 
C      38.88762282      33.43161244      26.92824937 
C      38.78313112      31.40490904      30.11207328 
C      39.46558643      31.31370130      28.89126678 
C      38.12595890      35.60385332      35.60131940 
C      36.97593599      35.79087898      36.36556146 
C      36.95088928      36.74843213      37.38313878 
C      38.08018466      37.52704994      37.63978813 
C      39.23867037      37.34897434      36.88223070 
C      39.26166792      36.38698152      35.86419248 
C      41.58242387      38.70233374      34.46929472 
H      39.89539700      35.33462802      26.70000039 
H      38.27760509      36.18944785      25.03027030 
H      36.03486234      32.51948989      25.30978364 
H      37.65141810      31.65684237      26.98153463 
H      38.67028691      32.36576940      30.61652827 
H      38.14339168      34.86529009      34.79512127 
H      36.09151574      35.18849168      36.15916459 
H      36.04584902      36.89220307      37.97343798 
H      38.06090309      38.27854643      38.42893520 
H      40.11841834      37.96152159      37.07858333 
H      40.71320804      38.78144742      33.81809099 
H      40.85422016      34.93193439      37.57975567 
C      39.11911891      28.91927748      28.86543877 
C      39.63919623      30.06786086      28.27107214 
H      39.25794091      27.95091926      28.38494914 
H      40.18939646      29.99394570      27.33294056 
C      42.76511673      31.78623602      25.18303036 
H      42.76005166      31.64636773      24.10215858 
P      40.10229048      32.83577311      28.12761022 
O      42.09207532      33.32348089      30.98780082 
O      41.88413985      37.19763117      31.63504628 
C      41.18276684      34.01151480      30.53911122 
C      41.08675042      36.33382770      31.94847130 
C      41.59414324      32.17363581      25.83605058 
C      43.93764412      31.58394312      25.91218017 
C      43.94326221      31.77129518      27.29706647 
C      42.78115034      32.15893438      27.96095949 
C      41.60216377      32.35888313      27.22457726 
C      43.01083688      37.37674928      35.92061717 
C      43.84861699      38.47867573      36.09448411 
C      43.55506560      39.68684682      35.46121578 
C      42.42441695      39.79651243      34.64840275 
C      41.87415939      37.48922724      35.11093190 
C      42.24217096      33.75640335      34.68426254 
C      42.86306324      32.61637534      35.19379851 
C      42.77410163      32.31398131      36.55364880 
C      41.42888019      34.28965534      36.91229642 
C      41.52726246      34.59778116      35.54764394 
H      40.68007883      32.33778912      25.26573558 
H      44.85203849      31.28545511      25.39933496 
H      44.86083592      31.62168800      27.86569924 
H      42.78665104      32.32068942      29.04240745 
H      43.24697002      36.43006221      36.40491461 
H      44.73590289      38.38866311      36.72062216 
H      44.21494603      40.54431597      35.59297059 
H      42.20389339      40.73368185      34.13873319 
H      42.29802881      33.97202044      33.61614419 
H      43.40827940      31.95969469      34.51665031 
C      42.05594503      33.14963868      37.41240807 
H      43.25654760      31.41838540      36.94546495 
H      41.97571656      32.90859055      38.47227309 
