41

C      32.45102122      32.19346846      33.32433212 
H      31.90230688      32.06308025      29.61626721 
H      32.16797443      30.56589142      31.34030396 
H      31.67049026      32.69868069      32.71931324 
H      32.00223690      31.24497384      33.68400366 
H      32.17934310      33.20210446      34.96197474 
C      34.06064155      28.58341989      31.17040959 
C      35.11449538      27.72242518      30.44456782 
C      35.00054427      27.79136127      28.90983406 
C      35.01155399      29.21439264      28.40700296 
C      34.13521691      28.47832703      32.71738520 
C      35.50878714      28.82172558      33.30914170 
C      33.65368139      27.10844120      33.21473940 
C      35.87621567      29.65996787      27.48802077 
H      32.99042712      29.60528656      28.87424227 
H      33.06133544      28.19945571      30.88400555 
H      35.03721322      26.67348721      30.76540414 
H      36.11989908      28.06641469      30.73256996 
H      35.81113573      27.21486602      28.44286702 
H      34.05278580      27.31324536      28.60244358 
H      33.41745090      29.22012805      33.10966631 
H      35.87656435      29.79724921      32.96788293 
H      36.25957084      28.06134272      33.05164080 
H      35.45038800      28.86157063      34.40548210 
H      32.65522524      26.86576996      32.82324943 
H      33.59826745      27.08856936      34.31198203 
H      34.33660886      26.30189124      32.91135122 
H      36.62288039      28.99715248      27.04863869 
O      34.73508222      32.13346193      32.58187710 
O      32.92630686      33.00034674      34.37946372 
C      33.97868747      30.06127327      29.09216426 
C      33.87638520      31.55774294      28.81362664 
C      32.95188292      32.06513317      29.93913879 
C      33.58058876      31.81296213      32.37653789 
C      33.13467604      31.05409944      31.13405997 
C      34.15611859      30.01593071      30.62893165 
H      33.48458823      31.79274759      27.81517354 
H      34.86990110      32.02255094      28.89910817 
H      33.19525887      33.09396422      30.23455333 
H      35.16011295      30.41840435      30.85050877 
H      35.87139729      30.69270533      27.14002801 
