55

C 94.32268214 82.20416736 94.27970990 
C 92.91518845 82.55922836 93.84387517 
C 91.94555013 81.62289608 93.74213297 
C 92.18297569 80.14440028 93.90566120 
C 90.50160125 81.95651732 93.46435606 
C 90.12305285 83.44785496 93.58308329 
C 91.23725357 84.28778909 94.15340980 
C 92.58030890 84.03422752 93.48347281 
C 92.45516283 84.14097476 91.93775677 
C 93.66365147 85.04196979 93.88257055 
C 90.93901176 85.08060639 95.20000767 
H 94.99633455 83.05812875 94.15992765 
H 94.72712725 81.42467426 93.61332086 
H 91.61119880 79.58584769 93.14866948 
H 91.83310840 79.78217979 94.88618297 
H 93.23618370 79.86168729 93.80161556 
H 90.21717429 81.56489485 92.47245992 
H 89.89135489 81.37681323 94.17720968 
H 89.87447865 83.84914976 92.58851411 
H 89.21843681 83.56469049 94.19147274 
H 93.43366703 83.93276453 91.48564421 
H 91.74311646 83.42358343 91.51575863 
H 92.15045675 85.15472769 91.64014044 
H 94.58941594 84.85401130 93.32473382 
H 93.90722868 85.02998506 94.94872900 
H 93.33761800 86.05783481 93.62588794 
S 91.83500119 86.40854997 96.00934331 
C 91.82347875 85.63941865 97.66967133 
C 90.66932196 85.79471301 98.43831407 
C 90.63369298 85.32490937 99.74880960 
C 91.77270412 84.74072559 100.30721616 
C 92.93591337 84.62185473 99.54934098 
C 92.97132691 85.04444938 98.21357408 
N 94.20589665 84.97895273 97.48544757 
C 95.05995685 86.16416291 97.60456990 
C 94.79553232 83.80884266 97.02237314 
O 95.98411830 83.79632282 96.70627926 
C 93.91488740 82.56165994 96.86512676 
C 93.91803157 81.72419081 98.16014680 
C 94.44700056 81.67687170 95.72295436 
H 89.82001275 86.32111200 97.99992589 
H 89.72704482 85.43838732 100.34284758 
H 91.76446000 84.39956649 101.34209305 
H 93.84538057 84.21571322 99.99168897 
H 94.45285109 87.06281192 97.44543659 
H 95.53135175 86.22259831 98.59810260 
H 95.84733541 86.10125903 96.84815365 
H 92.88111420 82.87575564 96.64641694 
H 93.39507146 80.77410568 97.98642261 
H 93.41706578 82.23058130 98.99104108 
H 94.94744093 81.49066055 98.46527146 
H 95.50960683 81.47593391 95.92110650 
H 93.92375130 80.71447070 95.80150755 
H 89.91769307 85.07882406 95.59568339 
O 90.83267911 87.52431555 96.07364801 
