16
QM7-X native coordinates in angstrom (molecule 7040, Geom-m7040-i1-c1-opt)
C -1.77265 0.280127 -1.146552
C -0.247209 0.339636 -1.102341
S 0.380931 -0.135934 0.574068
O -0.232798 -1.36958 1.028974
O 1.812654 0.087645 0.660931
N -0.502155 1.369477 1.604364
C 0.406963 -0.575382 -2.14081
H -2.207035 0.94264 -0.401714
H -2.12945 -0.73033 -0.960239
H -2.128576 0.588782 -2.127483
H 0.082008 1.373946 -1.274672
H -1.104668 0.935496 2.305181
H 0.244727 1.874634 2.083786
H 0.12385 -1.613898 -1.98248
H 1.491545 -0.50468 -2.098485
H 0.086326 -0.288806 -3.140561
