41

C      18.53240516      34.43021051      30.47797422 
H      19.38328668      34.37008281      29.78515105 
C      17.47540562      33.44951853      29.95484252 
H      16.84676717      33.01728422      30.73515856 
C      16.63071162      34.22991543      28.92923929 
H      16.68450866      33.79155280      27.92026852 
H      15.57324802      34.21475438      29.25007708 
N      18.11555327      32.22402502      29.29435330 
O      19.16899430      32.36798069      28.68338055 
O      17.48674507      31.17269036      29.40309125 
C      19.01571722      34.19190793      31.88912921 
C      20.36383710      34.37682515      32.24665535 
C      19.90855725      33.81781874      34.54913769 
C      18.56565019      33.62617775      34.22654898 
H      17.84978138      33.33215989      34.99296151 
C      18.13628049      33.81055080      32.91546537 
H      17.08066374      33.67039877      32.68636745 
N      17.20190145      35.57177249      28.92939817 
C      17.86660095      35.82416246      30.18123680 
C      16.36561249      36.61495706      28.36616050 
H      16.92642942      37.55714229      28.32884967 
H      15.42343041      36.77694332      28.92583539 
H      16.10867829      36.34635190      27.33276924 
C      18.94694032      36.93954263      30.10670622 
O      19.64151899      37.19331598      29.14379414 
C      18.92509342      37.64658851      31.41016844 
C      19.85507091      38.54623654      31.93127705 
H      20.74283670      38.81323596      31.35905627 
C      19.61170812      39.07549134      33.19716539 
H      20.31975033      39.77929793      33.63465836 
C      18.46332628      38.71596566      33.92583945 
H      18.30356483      39.14879135      34.91340774 
C      17.53372764      37.81880279      33.40464994 
H      16.64342966      37.52900680      33.96186045 
C      17.77779786      37.28734428      32.13716681 
C      16.99237504      36.28715046      31.38000868 
O      15.86041875      35.89650266      31.62059036 
C      20.80979354      34.19199248      33.55650295 
H      20.26028476      33.67387160      35.57025230 
Cl      21.54628014      34.85529835      31.05891692 
H      21.86324051      34.34253245      33.78441315 
