48

H      11.41449474      27.63253451      23.84217972 
C      11.79033011      31.29439926      22.47104573 
C      11.84957660      28.89168458      22.18174242 
H      12.00962564      28.08901685      21.46330482 
C      12.20884587      30.30185869      20.21449874 
H      12.65423229      29.35506816      19.88726740 
C      13.10708630      31.46734022      19.76180802 
H      13.71414049      31.88770503      20.57192907 
C      12.14141453      32.49228291      19.10608015 
H      12.16622453      33.47706499      19.58785908 
C      10.78624875      31.82410215      19.23075357 
C       9.57745707      32.50653888      19.79908813 
C       9.58688800      32.15840708      18.35093591 
H       9.71416060      32.95339822      17.61775895 
H       8.96975147      31.31430402      18.04521226 
C      13.86894325      31.99164159      17.64555144 
C      14.94145139      33.06012238      17.87571536 
H      14.81599713      33.54457141      18.85260725 
H      14.87439760      33.83334748      17.10059149 
H      15.94084171      32.60901968      17.84062043 
C      13.99535764      31.29059981      16.30660445 
H      14.97090965      30.79616303      16.22746341 
H      13.90421274      32.01761570      15.49091035 
H      13.20148144      30.54169939      16.21098518 
F       9.63452601      33.80860423      20.17854703 
F       8.76436597      31.81806529      20.64438111 
N      12.00504758      30.16109280      21.66705145 
O      11.86784307      32.43688352      22.03731589 
O      13.91184845      30.99558155      18.68298131 
O      12.55504730      32.56201414      17.74091008 
O      10.98195529      30.44600744      19.51021882 
C      11.30072328      29.74345845      24.39087504 
C      11.52317164      28.64622009      23.46965168 
C      11.38223119      32.21263077      24.69610672 
C      10.04902818      32.83279610      24.79102913 
C       9.89395114      33.92265319      25.66455966 
H      10.75481864      34.25596905      26.24206461 
C       8.66071627      34.55197765      25.77862609 
H       8.54125700      35.39530618      26.45814683 
C       7.57430390      34.10439572      25.01919120 
H       6.60852199      34.60230875      25.10660400 
C       7.72353155      33.02359780      24.14828922 
H       6.88010734      32.67897931      23.55135574 
C       8.95534263      32.38530979      24.03566248 
H       9.06612430      31.54777271      23.35069610 
N      11.48267823      31.02061085      23.79057287 
O      10.97787097      29.65836848      25.56717255 
O      12.37783831      32.57076693      25.27248757 
