70

C       9.86753234      24.00547579      37.72369608 
C      14.14751623      24.04591492      36.36939350 
C      13.64289010      22.73835111      36.40085762 
C      14.49979167      21.63781333      36.34567308 
C      15.87934402      21.82078462      36.25290940 
C      16.39302832      23.11722231      36.18968070 
C      15.53761138      24.21437073      36.23559668 
C      14.75069576      23.55261338      39.67227062 
C      13.79400494      22.66419065      40.15502597 
C      13.25498313      22.83716181      41.43075113 
C      13.69461579      23.90264784      42.21562946 
C      17.79237077      23.61059745      39.51642765 
H       7.94073349      24.15697268      36.75571753 
H       9.48135953      23.48559217      38.60056070 
H      12.56981474      22.57267196      36.46614877 
H      14.08090391      20.63147488      36.37113358 
H      16.54929224      20.96178550      36.21998494 
H      17.46697586      23.27970048      36.11434813 
H      15.16350230      23.39861961      38.67975192 
H      13.47076814      21.83723673      39.52249887 
H      12.50447386      22.14465448      41.81223493 
H      13.29243579      24.04631406      43.21861139 
H      17.22222555      23.05041142      40.25487467 
C      14.14121121      26.60547470      32.97377344 
C      14.02599431      27.98678383      33.13284464 
H      14.40572453      26.18485623      32.00342361 
H      14.20574632      28.65567854      32.29123118 
S      13.43986154      26.14540690      38.18834568 
S      15.31631331      26.76175470      38.54897177 
C      13.25906725      25.27575679      36.45080613 
C      13.57919136      26.25832726      35.31992161 
C      13.92150831      25.75281754      34.05484034 
C      13.67853195      28.50110867      34.38178695 
C      13.45430298      27.64608883      35.46118356 
C      11.76136374      24.96655692      36.52722624 
C      10.88159274      25.34644815      35.50416647 
C       9.52008040      25.05113083      35.58324450 
C       9.00549705      24.38131512      36.69261256 
C      11.22853110      24.29332575      37.64350739 
C      16.22205019      25.59490825      39.87434865 
C      15.20283804      24.63243919      40.44972094 
C      14.65871963      24.78878903      41.73178310 
C      17.39137462      24.90790964      39.16929126 
C      18.17564699      25.61137523      38.24216771 
C      16.75031952      26.60285831      40.90665374 
C      16.43953719      28.54539467      42.34569121 
C      15.96991091      27.68014414      41.35884645 
H      14.01221853      24.67689881      33.91338990 
H      13.58160417      29.57773873      34.52283778 
H      13.17891749      28.06065905      36.42893736 
H      11.26236800      25.87455490      34.63242006 
H       8.85917353      25.35308259      34.77063112 
H      11.88541728      23.99416023      38.45953822 
H      15.95331960      25.21763477      36.17594927 
H      14.99477445      25.60370706      42.36925386 
H      17.90029448      26.62911440      37.96729979 
H      15.81147714      29.37352755      42.67448989 
H      14.98550451      27.84517070      40.92521307 
C      18.92124585      23.02705134      38.93776703 
C      19.68076477      23.73222005      38.00615231 
H      19.20676705      22.01485096      39.22463683 
H      20.56165136      23.27722665      37.55343586 
C      19.30215393      25.03279481      37.66346976 
C      18.01867272      26.42647140      41.48035439 
C      18.48894316      27.29178066      42.46875555 
C      17.70406586      28.35813983      42.90502401 
H      19.88883328      25.60236519      36.94254879 
H      18.64862586      25.60029572      41.15683188 
H      19.47874530      27.12865558      42.89544110 
H      18.07472768      29.03921459      43.67101959 
