64

O      19.86010280      28.28309660      32.76717029 
O      18.64302191      30.24973211      36.66819098 
O      14.17063436      29.25007521      37.95162424 
O      15.95917704      27.85833360      33.65559508 
N      18.88812771      27.97236471      33.70952443 
C      18.41153689      29.04725706      34.22957826 
C      19.02007011      30.32575557      33.66461054 
C      17.29559340      29.03974314      35.18489197 
C      17.41839193      29.69869638      36.42909188 
C      16.36309869      29.75696120      37.33661883 
C      15.14846998      29.14910609      37.00219233 
C      14.97951288      28.49516250      35.77949975 
C      16.05492384      28.44776911      34.87944620 
C      17.09397330      30.62892824      32.04104121 
C      18.86504822      30.89264659      37.91815901 
C      12.90907666      28.65014877      37.67843982 
C      14.71265278      27.29638411      33.26899424 
H      19.45885684      30.60597922      30.83374819 
H      16.44943352      30.24848255      38.30107832 
H      14.03178916      28.03524484      35.52329007 
H      17.21033782      29.58675850      31.74318305 
H      18.72957339      30.19433270      38.75845394 
H      12.29079369      28.84462937      38.56032074 
H      12.43002506      29.09908614      36.79369970 
H      13.00124223      27.56207975      37.53261893 
H      14.87021608      26.89931947      32.26116046 
H      14.41305329      26.47263054      33.93621643 
H      13.91452537      28.05589934      33.24109085 
F      14.93387776      33.45946830      31.32882155 
C      17.94537848      31.16986464      33.01620021 
C      16.08176179      31.39305808      31.46469697 
C      15.92085486      32.70870381      31.88436017 
C      16.73071921      33.27611872      32.85912781 
C      17.74036237      32.49311688      33.41984982 
H      19.47548555      30.89337410      34.48657325 
H      15.41735243      30.98170848      30.70640491 
H      16.56502183      34.30604969      33.17084777 
H      18.38033946      32.92120668      34.19207344 
H      18.19953295      31.76029300      38.05216415 
H      21.19003756      29.39422698      29.49801415 
O      21.86440899      29.72767874      34.53432815 
C      22.47895069      30.35722921      32.23058594 
C      21.56833616      29.90638764      33.37255988 
C      20.13919188      29.73715401      32.76735001 
C      20.37052872      30.25246313      31.32876083 
C      21.12435731      29.14409259      30.56352917 
C      22.51973061      29.14465613      31.24407887 
H      20.61877840      28.17811568      30.64283113 
H      22.72633987      28.20773527      31.77718439 
H      23.33779630      29.28983607      30.52482113 
H      24.38838054      30.07366358      33.19794455 
C      21.48542516      31.33909160      31.50826913 
C      21.09755046      32.54460558      32.37638690 
C      22.00814726      31.88883040      30.17418125 
C      23.83327225      30.86593040      32.67823465 
H      20.82732947      32.27697321      33.40539771 
H      21.93962136      33.24710415      32.44308756 
H      20.24841401      33.08454647      31.93770108 
H      22.42009162      31.12250086      29.50906936 
H      21.19695730      32.39806308      29.63376320 
H      22.79862355      32.63047208      30.35188255 
H      24.43531063      31.19494515      31.82017271 
H      23.74042481      31.70543855      33.37981358 
H      19.90593213      31.22976477      37.89251805 
