16
candidate B, angstrom
C -1.53495800 2.15210900 -0.33953500
C -1.81764300 0.71691800 -0.76034900
N -1.29092400 -0.27223800 0.19970300
S 0.74565800 -0.37352400 0.09326700
O 1.11747800 -0.71299700 -1.27196600
O 1.28104200 0.79633500 0.75857800
C 0.91534400 -1.83848700 1.17176100
H -2.00285800 2.84781600 -1.03312900
H -0.46767700 2.35810700 -0.32562800
H -1.92673900 2.34961900 0.65543300
H -1.43039600 0.53578300 -1.78129800
H -2.90616700 0.55349500 -0.81265100
H -1.60898600 -1.20572200 -0.09140900
H 0.47559400 -2.71513100 0.70349000
H 0.43456700 -1.66446300 2.13072100
H 1.97399200 -2.02739700 1.34012100
