16
candidate C, angstrom
C -1.68904700 1.42311600 1.36048400
C -1.66543800 1.22354100 -0.14974300
N -1.24603100 -0.13514100 -0.53197800
S 0.76464000 -0.39706600 -0.33420000
O 1.17811300 -1.18860900 -1.47935400
O 1.37461300 0.88417700 -0.02429900
C 0.71121400 -1.44726400 1.15641400
H -2.08759900 2.40428300 1.60747500
H -0.68852000 1.35541300 1.78303400
H -2.31140900 0.67343700 1.84421100
H -1.02875100 1.99634900 -0.61933600
H -2.67844100 1.36796200 -0.55604200
H -1.40872400 -0.27129700 -1.53772000
H 0.13100600 -2.34595200 0.96521500
H 0.27038900 -0.90792000 1.99048600
H 1.72784100 -1.73414200 1.42001500
