16
candidate D, angstrom
C -3.15189200 0.65540400 -0.46587000
C -1.63053200 0.75848400 -0.51817600
N -1.02606400 -0.31789400 0.27535000
S 0.97918900 -0.20788900 0.36028300
O 1.29519400 1.15347700 0.73642600
O 1.39879000 -1.35284500 1.14100000
C 1.42622000 -0.47611600 -1.39905100
H -3.60917900 1.46075200 -1.03646500
H -3.50798100 0.71837000 0.55924500
H -3.49334600 -0.29078300 -0.88197800
H -1.30673900 1.72457600 -0.10942400
H -1.29657600 0.73245900 -1.57751000
H -1.27368600 -1.23921400 -0.10335600
H 0.94226800 0.25805300 -2.03813400
H 1.14166700 -1.47439200 -1.72038800
H 2.50434800 -0.37002600 -1.50481300
