16
candidate A, angstrom
C -1.67074500 1.44011700 -1.51618900
C -1.92749900 0.74801200 -0.17854100
N -1.22280200 -0.53894300 -0.02807400
S 0.77898800 -0.24945400 0.21808300
O 1.45484800 -0.69227600 -0.99126200
O 0.96042900 1.08317900 0.76116600
C 0.99710000 -1.49605000 1.53265600
H -2.24541900 2.36101900 -1.58897600
H -1.95541400 0.79935300 -2.34883800
H -0.61830100 1.69059800 -1.63212200
H -3.00567800 0.54817500 -0.06294200
H -1.64216700 1.40566000 0.65237600
H -1.30431600 -1.07775200 -0.90008600
H 0.71457600 -2.48225900 1.17384300
H 0.39231100 -1.24429600 2.39953500
H 2.04485800 -1.51633500 1.82760600
