16
S0 starting conformer, angstrom
C -3.15524800 0.41545500 -0.70587900
C -1.63664900 0.51915200 -0.78761500
N -1.02441300 -0.15541200 0.36991600
S 0.98816800 -0.30045000 0.15394600
O 1.37830400 -1.53866700 0.80253700
O 1.32789500 -0.01287200 -1.22925800
C 1.41856900 1.12523200 1.20678200
H -3.61802500 0.93400000 -1.54264700
H -3.52664400 0.85749900 0.21570800
H -3.47736000 -0.62397400 -0.73167300
H -1.33484500 1.57723200 -0.78674400
H -1.28523500 0.09013700 -1.74428100
H -1.35202600 -1.12910000 0.41495100
H 1.08498600 0.95844100 2.22743900
H 0.95982800 2.03318700 0.82427600
H 2.49989700 1.25094400 1.20446800
