20
SAMPL9 WP6 guest G11 (challenge 3D structure; coordinates copied unchanged), angstrom
C -0.038 -0.221 1.073
C 2.355 0.472 1.257
C 1.785 -1.934 0.892
C 1.335 -0.814 3.133
C 1.345 -0.640 1.599
N 2.653 -1.236 3.666
H -0.793 -0.985 1.294
H -0.368 0.715 1.537
H -0.030 -0.059 -0.010
H 3.360 0.217 1.614
H 2.068 1.423 1.719
H 2.418 0.633 0.175
H 2.768 -2.272 1.235
H 1.078 -2.748 1.085
H 1.838 -1.791 -0.194
H 0.619 -1.581 3.445
H 1.085 0.124 3.641
H 2.541 -1.866 4.467
H 3.200 -0.425 3.976
H 3.198 -1.729 2.950
