14
S0, angstrom
C -1.48785200 0.36135800 1.44991400
S -0.01832900 -0.36532000 0.60173900
O 1.16940700 0.36775900 1.04041200
O -0.09136700 -1.81861100 0.73737600
C -0.32994800 0.09795900 -1.14813500
N 0.12718800 1.41911700 -1.57994800
C 0.84926000 0.25019100 -2.05567800
H -1.41365100 0.15961700 2.51618400
H -2.40697000 -0.08371300 1.07711300
H -1.52677800 1.43750200 1.30172500
H -1.28873600 -0.22414600 -1.56713700
H 0.65392500 1.88739400 -0.83485800
H 1.84421100 0.06976900 -1.64633700
H 0.72786300 0.01465900 -3.11378400
