14
X (rigidly rotated and translated), angstrom
C -2.89753964 0.42990938 0.64623682
S -2.33575899 2.03244172 1.36292934
O -2.92542886 3.11847692 0.57965886
O -2.52882420 1.97553421 2.80981156
C -0.52716311 2.00493888 1.00195307
N 0.15371913 0.74321771 1.30563159
C 0.45105972 1.90682870 2.12667491
H -3.96486209 0.32147496 0.82611158
H -2.37644619 -0.40046228 1.11488008
H -2.72099119 0.40475154 -0.42594841
H -0.22748878 2.52811975 0.08786491
H 0.90120848 0.55923333 0.63170421
H 1.42501070 2.38344062 1.99865491
H 0.07672865 1.86792629 3.14959959
