27
SAMPL9 WP6 guest G6 (challenge 3D structure; coordinates copied unchanged), angstrom
C -0.296 0.887 -0.571
C -0.095 0.684 -2.073
C -1.701 1.342 -0.172
C -0.091 -0.773 -2.535
C -2.830 0.323 -0.342
C -1.185 -1.689 -1.988
C -3.180 0.003 -1.797
C -2.639 -1.335 -2.305
N -2.845 -1.383 -3.783
H 0.001 0.000 0.000
H 0.390 1.684 -0.255
H -0.812 1.271 -2.654
H 0.887 1.098 -2.341
H -1.667 1.619 0.890
H -1.955 2.263 -0.713
H -0.100 -0.795 -3.631
H 0.873 -1.212 -2.243
H -2.622 -0.586 0.233
H -3.722 0.766 0.120
H -0.991 -2.697 -2.381
H -1.065 -1.797 -0.904
H -4.276 -0.047 -1.870
H -2.895 0.832 -2.453
H -3.272 -2.138 -1.906
H -2.077 -1.882 -4.235
H -2.888 -0.437 -4.168
H -3.720 -1.863 -4.006
