22
SAMPL9 WP6 guest G3 (challenge 3D structure; coordinates copied unchanged), angstrom
C 0.938 0.359 0.436
C 1.176 1.850 0.149
C 1.980 1.356 2.327
C -0.363 0.943 2.501
C 0.935 0.298 1.974
C 1.254 2.464 1.559
C -0.159 2.430 2.169
N -0.207 3.235 3.414
H -0.000 0.000 0.000
H 1.758 -0.239 0.023
H 2.122 1.984 -0.387
H 0.375 2.285 -0.457
H 2.062 1.541 3.402
H 2.973 1.132 1.923
H -1.253 0.537 2.009
H -0.465 0.768 3.578
H 1.120 -0.701 2.373
H 1.734 3.445 1.574
H -0.932 2.829 1.505
H -0.212 2.630 4.242
H -1.052 3.817 3.442
H 0.607 3.856 3.481
