13
X (rigidly rotated and translated), angstrom
C -1.75798587 -1.16437493 1.22512614
S -1.21845332 0.49018122 1.82441291
O -2.38387000 1.20411402 2.34686727
O -0.02453077 0.31513542 2.64947989
C -0.71583260 1.31244373 0.24334699
O 0.06340142 0.47860396 -0.61001908
C 0.71513349 1.59015219 -0.02247802
H -2.02722608 -1.77716517 2.08284617
H -0.95210409 -1.65155614 0.68236380
H -2.62398789 -1.07302463 0.57429370
H -1.49603048 1.89333422 -0.27133482
H 0.98390627 2.39535658 -0.71730280
H 1.46397393 1.34624606 0.73899008
