15
S0, angstrom
C -3.31187900 0.12536200 0.38631700
C -1.82775100 0.00960800 0.23706500
C -1.07745700 1.02521200 -0.22717000
N 0.32149300 1.05776300 -0.42224900
C 1.28350100 0.11081200 -0.20909700
S 1.04454700 -1.45404200 0.39827000
N 2.56387000 0.51474500 -0.51296600
H -3.61445000 -0.04585700 1.42105800
H -3.82424300 -0.62598700 -0.21766300
H -3.67241500 1.10696800 0.08424900
H -1.36517200 -0.93239900 0.51704500
H -1.54390200 1.97163800 -0.50721200
H 0.66054400 1.94560400 -0.78783300
H 2.74729000 1.38391300 -0.99840900
H 3.30356800 -0.17272400 -0.45973400
