15
X (rigidly rotated and translated), angstrom
C 0.03551649 -6.03676548 -2.05051782
C 0.56541839 -4.73742172 -2.56974655
C -0.03580128 -3.55209621 -2.34999731
N 0.47832600 -2.34435689 -2.84560011
C -0.08911136 -1.11631566 -2.65387009
S -1.51911225 -0.87127951 -1.77696122
N 0.56279721 -0.05511365 -3.22606008
H -0.17509557 -6.73053054 -2.86680036
H -0.88093798 -5.89068357 -1.48455472
H 0.76391536 -6.52677881 -1.40142901
H 1.48576076 -4.77226347 -3.15182937
H -0.95526904 -3.44899783 -1.77687539
H 1.33915747 -2.39851772 -3.38819819
H 1.44683772 -0.16183580 -3.70705844
H 0.19625995 0.87490256 -3.07487413
