46
SAMPL9 WP6 guest G2 (challenge 3D structure; coordinates copied unchanged), angstrom
C 2.034 -2.522 1.835
C 0.591 -0.492 2.208
C -0.009 -3.610 -0.014
C -1.400 -1.539 0.331
C 2.681 -2.313 3.199
C 1.237 -0.282 3.572
C -0.657 -3.818 -1.378
C -2.048 -1.747 -1.033
C 0.610 -1.963 1.785
C 0.009 -2.135 0.392
C 3.616 -0.006 2.766
C 3.157 -0.755 5.071
C -3.044 -4.024 -0.578
C -2.559 -3.313 -2.889
N 2.662 -0.841 3.621
N -2.067 -3.224 -1.438
H 2.651 -2.072 1.049
H 2.009 -3.598 1.621
H -0.448 -0.142 2.256
H 1.085 0.131 1.453
H -0.522 -4.212 0.745
H 1.020 -3.988 -0.055
H -1.348 -0.462 0.533
H -2.031 -1.964 1.120
H 2.134 -2.876 3.966
H 3.724 -2.647 3.197
H 1.287 0.783 3.826
H 0.660 -0.801 4.347
H -0.064 -3.323 -2.157
H -0.733 -4.884 -1.621
H -3.083 -1.387 -1.038
H -1.485 -1.207 -1.805
H -0.010 -2.533 2.491
H 0.645 -1.589 -0.318
H 3.558 1.027 3.114
H 4.622 -0.409 2.898
H 3.293 -0.089 1.727
H 3.143 0.295 5.367
H 2.481 -1.347 5.690
H 4.172 -1.157 5.102
H -4.026 -3.553 -0.662
H -3.065 -5.047 -0.959
H -2.683 -3.996 0.452
H -3.564 -2.889 -2.927
H -1.868 -2.743 -3.512
H -2.567 -4.367 -3.175
