15
QM7-X molecule 7063 (C3H8O3S), conformer Geom-m7063-i1-c1-opt, DFTB3+MBD-optimized geometry, angstrom
C -2.144620 1.313752 -0.586597
C -0.627987 1.259473 -0.494485
S -0.079396 -0.275534 0.397986
O -0.439109 -0.159271 1.814039
O -0.508525 -1.439928 -0.386485
C 1.779538 -0.197086 0.207836
O 2.084779 -0.375198 -1.147223
H -2.457032 2.212735 -1.114709
H -2.593406 1.327527 0.403909
H -2.530868 0.451371 -1.124452
H -0.241418 2.130149 0.042648
H -0.176598 1.258313 -1.490271
H 2.230806 -0.988005 0.837784
H 2.173364 0.774391 0.534912
H 1.726737 -1.219609 -1.460770
