14
QM7-X molecule 7110 (C3H7NO2S), conformer Geom-m7110-i1-c1-opt, DFTB3+MBD-optimized geometry, angstrom
C -1.487852 0.361358 1.449914
S -0.018329 -0.365320 0.601739
O 1.169407 0.367759 1.040412
O -0.091367 -1.818611 0.737376
C -0.329948 0.097959 -1.148135
N 0.127188 1.419117 -1.579948
C 0.849260 0.250191 -2.055678
H -1.413651 0.159617 2.516184
H -2.406970 -0.083713 1.077113
H -1.526778 1.437502 1.301725
H -1.288736 -0.224146 -1.567137
H 0.653925 1.887394 -0.834858
H 1.844211 0.069769 -1.646337
H 0.727863 0.014659 -3.113784
