13
QM7-X molecule 7165 (C3H6O3S), conformer Geom-m7165-i1-c1-opt, DFTB3+MBD-optimized geometry, angstrom
O -0.730181 -0.669202 -1.908357
C -0.760319 -0.772200 -0.512868
C 0.278092 -1.761220 0.109877
C 1.079063 -0.749373 0.954624
S 0.068467 0.695033 0.324715
O 0.822039 1.560767 -0.573040
O -0.773949 1.265292 1.379645
H -1.257967 -1.365816 -2.320574
H -1.796420 -0.934493 -0.149333
H 0.890757 -2.234330 -0.658727
H -0.182671 -2.550894 0.707226
H 2.137778 -0.694314 0.698678
H 0.988768 -0.898784 2.031525
