13
QM7-X molecule 7043 (C3H6O3S), conformer Geom-m7043-i1-c1-opt, DFTB3+MBD-optimized geometry, angstrom
C -3.138656 -0.829200 0.193645
C -1.650770 -0.781946 0.258843
C -0.904325 0.221238 -0.225865
S 0.898653 0.172463 -0.163007
O 1.307160 -1.013436 0.576706
O 1.428388 0.468796 -1.470294
O 1.205408 1.469502 0.766195
H -3.465262 -1.710298 -0.360219
H -3.550846 0.054645 -0.286386
H -3.561839 -0.911677 1.195592
H -1.152634 -1.629050 0.732973
H -1.366870 1.072747 -0.722477
H 1.353875 1.304771 1.708028
