13
QM7-X molecule 7044 (C3H6O3S), conformer Geom-m7044-i1-c1-opt, DFTB3+MBD-optimized geometry, angstrom
C -1.998264 -0.670454 -0.665833
C -0.500205 -0.731861 -0.725968
C 0.191134 -1.590870 -1.483846
S 0.399148 0.492111 0.284208
O 1.831069 0.299916 0.105988
O -0.219052 1.784940 0.118391
O 0.010503 -0.022992 1.777912
H -2.446221 -1.428762 -1.303407
H -2.352581 0.309475 -0.986197
H -2.350000 -0.821000 0.355282
H -0.314969 -2.317922 -2.109974
H 1.275695 -1.576851 -1.496807
H 0.665563 -0.574521 2.229331
