15
QM7-X molecule 7033 (C4H8O2S), conformer Geom-m7033-i1-c1-opt, DFTB3+MBD-optimized geometry, angstrom
C -3.161958 0.236096 -0.800458
C -1.673384 0.167808 -0.799473
C -0.927961 -0.091727 0.284497
S 0.877454 -0.219752 0.166552
O 1.315924 -1.413664 0.883873
O 1.264211 -0.000939 -1.224944
C 1.416378 1.251001 1.146277
H -3.499398 1.208624 -1.161461
H -3.576567 0.069740 0.190736
H -3.573915 -0.512297 -1.478823
H -1.172335 0.335168 -1.754027
H -1.387984 -0.286109 1.251848
H 1.080425 1.172305 2.176807
H 1.027926 2.169218 0.713912
H 2.503052 1.297138 1.139695
