16
QM7-X molecule 7050 (C3H9NO2S), conformer Geom-m7050-i1-c1-opt, DFTB3+MBD-optimized geometry, angstrom
C -3.155248 0.415455 -0.705879
C -1.636649 0.519152 -0.787615
N -1.024413 -0.155412 0.369916
S 0.988168 -0.300450 0.153946
O 1.378304 -1.538667 0.802537
O 1.327895 -0.012872 -1.229258
C 1.418569 1.125232 1.206782
H -3.618025 0.934000 -1.542647
H -3.526644 0.857499 0.215708
H -3.477360 -0.623974 -0.731673
H -1.334845 1.577232 -0.786744
H -1.285235 0.090137 -1.744281
H -1.352026 -1.129100 0.414951
H 1.084986 0.958441 2.227439
H 0.959828 2.033187 0.824276
H 2.499897 1.250944 1.204468
