15
QM7-X molecule 7052 (C3H8O3S), conformer Geom-m7052-i1-c1-opt, DFTB3+MBD-optimized geometry, angstrom
C 1.735003 0.104436 -1.322146
C 1.226318 -0.052974 0.113170
S -0.661856 -0.112504 0.223945
O -1.049956 -0.652273 1.524295
O -1.119125 1.216526 -0.196842
C -1.176623 -1.333258 -1.071059
O 1.585616 1.046984 0.917531
H 2.810063 0.271700 -1.314736
H 1.267631 0.955731 -1.813918
H 1.536500 -0.786277 -1.914978
H 1.644794 -0.958215 0.584346
H -2.253129 -1.473815 -1.003231
H -0.694328 -2.294587 -0.912072
H -0.938065 -0.971176 -2.067365
H 1.175765 1.857575 0.579167
