13
QM7-X molecule 7208 (C4H6N2S), conformer Geom-m7208-i1-c1-opt, DFTB3+MBD-optimized geometry, angstrom
S -2.067245 -0.000002 1.076656
C -0.644590 -0.000006 0.164097
N 0.018165 -1.114070 -0.271792
C 1.255253 -0.752848 -0.919047
C 1.255263 0.752870 -0.919031
N 0.018158 1.114067 -0.271799
C 2.258889 -0.000007 -0.067928
H -0.253237 -2.058438 -0.025636
H 1.585064 -1.374639 -1.754929
H 1.585061 1.374639 -1.754941
H -0.253239 2.058430 -0.025649
H 2.123619 0.000005 1.008305
H 3.285506 0.000005 -0.417050
