13
QM7-X molecule 7206 (C3H6O3S), conformer Geom-m7206-i1-c1-opt, DFTB3+MBD-optimized geometry, angstrom
C -2.599845 0.021198 1.468264
C -1.843937 0.565375 0.514015
C -1.042127 -0.231763 -0.473957
S 0.773496 -0.012470 -0.176160
O 1.130679 1.379244 -0.406162
O 1.140305 -0.694213 1.038513
O 1.345200 -0.882563 -1.425973
H -3.157400 0.642404 2.157759
H -2.678803 -1.053348 1.585301
H -1.775035 1.648204 0.421540
H -1.260808 0.096222 -1.496085
H -1.278861 -1.296287 -0.404892
H 1.760952 -0.386271 -2.146021
