15
QM7-X molecule 7030 (C4H8N2S), conformer Geom-m7030-i1-c1-opt, DFTB3+MBD-optimized geometry, angstrom
C -1.798031 -0.879086 -0.500078
C -0.433588 -1.455348 -0.293945
C -0.192077 -2.780516 -0.430406
N 0.649964 -0.623434 0.052895
C 0.740412 0.728062 0.258824
S -0.514919 1.861241 0.147711
N 1.997295 1.169555 0.588766
H -2.494186 -1.674136 -0.756029
H -1.799730 -0.144378 -1.303976
H -2.156350 -0.380091 0.399111
H -0.990090 -3.456780 -0.695325
H 0.797974 -3.190878 -0.279111
H 1.524011 -1.137459 0.166551
H 2.789828 0.544010 0.660241
H 2.136147 2.158340 0.747169
