17
QM7-X molecule 7032 (C4H10N2S), conformer Geom-m7032-i1-c1-opt, DFTB3+MBD-optimized geometry, angstrom
C -1.384004 -0.654005 2.734485
C -1.875079 -1.166981 1.386463
C -1.475507 -0.268424 0.211158
N -0.030806 -0.268124 0.023177
C 0.641155 0.446800 -0.915496
S 2.337879 0.361935 -1.008640
N -0.066252 1.242884 -1.770043
H -1.685912 -1.328762 3.531570
H -1.796128 0.329162 2.950590
H -0.299410 -0.573649 2.757680
H -2.965679 -1.248658 1.404462
H -1.490526 -2.177126 1.212871
H -1.839668 0.760613 0.383991
H -1.980749 -0.620649 -0.708220
H 0.529514 -0.841950 0.645737
H -1.076646 1.224741 -1.806532
H 0.439157 1.717658 -2.505505
