14
QM7-X molecule 7114 (C3H7NO2S), conformer Geom-m7114-i1-c1-opt, DFTB3+MBD-optimized geometry, angstrom
N -3.098216 -0.599119 0.280043
C -1.734271 -0.684279 0.178188
C -0.917492 0.368827 -0.095873
S 0.853399 0.116444 -0.223644
O 1.125392 -1.308002 -0.021689
O 1.366835 0.808091 -1.403869
C 1.492437 1.021820 1.257019
H -3.645746 -1.448196 0.293212
H -3.561773 0.247207 -0.025335
H -1.312328 -1.670996 0.370491
H -1.324819 1.351626 -0.314322
H 1.108601 0.583734 2.174223
H 1.209484 2.070251 1.218636
H 2.577857 0.958185 1.269561
