14
QM7-X molecule 7038 (C3H7NO2S), conformer Geom-m7038-i1-c1-opt, DFTB3+MBD-optimized geometry, angstrom
C -3.142684 0.326909 -0.754402
C -1.653371 0.313871 -0.760384
C -0.896027 0.097305 0.326448
S 0.898469 0.124952 0.237035
O 1.325558 0.538290 -1.080734
O 1.455772 0.665859 1.455577
N 1.270330 -1.848959 0.325845
H -3.514302 1.294868 -1.092833
H -3.545834 0.126655 0.235067
H -3.531930 -0.419850 -1.447776
H -1.163672 0.505144 -1.716316
H -1.344361 -0.090189 1.300327
H 0.791345 -2.320990 -0.440201
H 0.942790 -2.213860 1.219534
