15
QM7-X molecule 7034 (C4H8O2S), conformer Geom-m7034-i1-c1-opt, DFTB3+MBD-optimized geometry, angstrom
C -2.025771 -0.911568 -0.154858
C -0.534957 -1.034678 -0.041999
C 0.133896 -2.192315 -0.079482
S 0.403496 0.519998 0.220372
O -0.363262 1.378718 1.120806
O 1.794790 0.183994 0.511474
C 0.341974 1.276439 -1.465776
H -2.491996 -1.890255 -0.239939
H -2.306097 -0.319907 -1.028064
H -2.432550 -0.405138 0.720124
H -0.386497 -3.135862 -0.206442
H 1.212581 -2.215721 0.031745
H -0.685591 1.449467 -1.774635
H 0.830717 0.636241 -2.195280
H 0.860425 2.232232 -1.439013
