15
QM7-X molecule 7029 (C4H8N2S), conformer Geom-m7029-i1-c1-opt, DFTB3+MBD-optimized geometry, angstrom
C -3.311879 0.125362 0.386317
C -1.827751 0.009608 0.237065
C -1.077457 1.025212 -0.227170
N 0.321493 1.057763 -0.422249
C 1.283501 0.110812 -0.209097
S 1.044547 -1.454042 0.398270
N 2.563870 0.514745 -0.512966
H -3.614450 -0.045857 1.421058
H -3.824243 -0.625987 -0.217663
H -3.672415 1.106968 0.084249
H -1.365172 -0.932399 0.517045
H -1.543902 1.971638 -0.507212
H 0.660544 1.945604 -0.787833
H 2.747290 1.383913 -0.998409
H 3.303568 -0.172724 -0.459734
