13
QM7-X molecule 7111 (C3H6O3S), conformer Geom-m7111-i1-c1-opt, DFTB3+MBD-optimized geometry, angstrom
C 1.096653 1.571285 -0.362911
S 0.664071 -0.078223 0.329400
O 1.125915 -1.105124 -0.602807
O 1.065523 -0.117896 1.735828
C -1.186320 -0.031937 0.273990
O -1.709327 0.483356 -0.947285
C -1.919240 -0.892382 -0.684009
H 2.178982 1.642743 -0.446685
H 0.742963 2.365454 0.289824
H 0.657173 1.695898 -1.349257
H -1.688982 0.339141 1.179864
H -1.361791 -1.582670 -1.326712
H -2.956923 -1.173483 -0.465742
