13
QM7-X molecule 7089 (C4H6N2S), conformer Geom-m7089-i1-c1-opt, DFTB3+MBD-optimized geometry, angstrom
C -2.426104 -0.719084 1.170565
N -0.971984 -0.809632 1.263352
C -0.258011 -0.224128 0.346841
S 1.527905 -0.245581 0.327338
C 1.554404 0.731951 -1.158634
C 0.294945 1.023395 -1.566257
N -0.707308 0.505550 -0.752434
H -2.884131 -1.197839 2.039963
H -2.814188 -1.221151 0.270088
H -2.779420 0.324367 1.137242
H 2.473263 1.031827 -1.640415
H 0.016273 1.603721 -2.440456
H -1.694643 0.644129 -0.935343
