15
S0, angstrom
C -3.20608800 0.54471500 -0.33990000
C -1.72328600 0.66140100 -0.24744400
C -0.90612900 -0.34240400 0.10242900
S 0.88367200 -0.08463500 0.24394700
O 1.17484200 1.31185900 -0.07016800
O 1.35182200 -0.68166700 1.49148400
C 1.51283500 -1.12673000 -1.14564700
H -3.54723000 0.80429400 -1.34294600
H -3.68470200 1.24330900 0.34768200
H -3.54904800 -0.46001500 -0.10604200
H -1.28983600 1.63604100 -0.47666800
H -1.29815800 -1.32478200 0.36042500
H 1.13013200 -0.77258000 -2.09905700
H 1.22390500 -2.16560300 -1.00990800
H 2.59888300 -1.06994000 -1.16379700
