15
X (rigidly rotated and translated), angstrom
C -0.09301724 -2.11769474 -2.29626532
C -1.43061076 -1.88341325 -1.65878956
C -1.60631186 -1.40747909 -0.42124823
S -2.90692580 -2.34235015 -2.64692967
O -2.61267196 -3.57419227 -3.37636707
O -4.08999095 -2.24116205 -1.79636758
C -2.97074455 -0.96267726 -3.87636568
H 0.71381222 -1.87852206 -1.60760326
H 0.02735701 -1.50681134 -3.19262777
H 0.00506878 -3.15908022 -2.60192757
H -0.75875524 -1.14920264 0.20497035
H -2.60179305 -1.28298315 -0.00893939
H -2.05945700 -0.92930109 -4.46768914
H -3.10808462 -0.00658155 -3.37845205
H -3.81133672 -1.13007762 -4.54601476
