42
SAMPL9 WP6 guest G10 (challenge 3D structure; coordinates copied unchanged), angstrom
C -0.178 1.286 5.191
C 0.509 1.750 6.313
C 1.300 -0.621 5.073
C 1.988 -0.157 6.194
C 0.217 0.100 4.572
C 1.593 1.028 6.814
C -1.755 -1.829 4.982
C -2.895 0.101 3.909
C -2.326 -1.910 2.565
C 0.527 0.424 9.323
C 2.815 -0.548 9.292
C 2.386 1.583 10.496
C -0.522 -0.399 3.365
C 2.329 1.525 8.012
N -1.875 -1.009 3.705
N 2.021 0.763 9.254
H -1.022 1.854 4.808
H 0.196 2.675 6.788
H 1.616 -1.545 4.595
H 2.831 -0.726 6.579
H -1.018 -2.615 4.806
H -1.431 -1.159 5.780
H -2.737 -2.253 5.200
H -2.960 0.670 2.980
H -3.852 -0.365 4.151
H -2.546 0.729 4.731
H -2.403 -1.297 1.665
H -1.577 -2.695 2.442
H -3.296 -2.332 2.836
H -0.030 1.362 9.295
H 0.287 -0.202 8.462
H 0.349 -0.110 10.258
H 3.876 -0.298 9.243
H 2.575 -1.056 10.228
H 2.512 -1.148 8.432
H 3.450 1.820 10.439
H 1.781 2.492 10.487
H 2.167 0.974 11.375
H -0.713 0.412 2.654
H 0.050 -1.173 2.843
H 3.417 1.462 7.874
H 2.088 2.575 8.228
