14
X (rigidly rotated and translated), angstrom
C 0.14586222 -3.51175185 0.50078506
S -1.11819904 -3.09469633 1.77576325
O -2.13514872 -2.24567747 1.15473507
O -1.50126539 -4.32913528 2.45649920
C -0.15519986 -2.04346483 2.94607271
N 1.16682314 -2.56026728 3.31067110
C 0.12603946 -2.53905785 4.32695530
H -0.30876551 -4.16321656 -0.24231489
H 0.98722554 -4.02923626 0.95355390
H 0.50273402 -2.61320792 0.00415163
H -0.24302482 -0.96439487 2.78183236
H 1.83480065 -1.79657701 3.44239778
H 0.21164299 -1.80039419 5.12644050
H -0.25831898 -3.51416643 4.62602704
