1329
1EHZ chains A, non-hydrogen ATOM records (main alternate location), angstrom
O 50.19300000 51.19000000 50.53400000
P 50.62600000 49.73000000 50.57300000
O 49.85400000 48.89300000 49.56200000
O 52.13700000 49.54200000 50.51100000
O 50.16100000 49.13600000 52.02300000
C 50.21600000 49.94800000 53.21000000
C 50.96800000 49.23100000 54.30900000
O 50.45000000 47.88800000 54.47200000
C 52.45400000 49.03000000 54.07400000
O 53.20300000 50.17700000 54.42500000
C 52.78100000 47.83100000 54.95700000
O 53.01800000 48.15600000 56.31300000
C 51.50200000 47.00700000 54.83600000
N 51.62800000 45.99200000 53.79800000
C 51.06400000 46.00700000 52.54700000
N 51.37900000 44.96600000 51.83100000
C 52.19700000 44.21800000 52.65800000
C 52.84800000 42.99200000 52.42500000
O 52.82600000 42.29100000 51.40400000
N 53.58800000 42.58800000 53.53400000
C 53.68500000 43.28200000 54.71600000
N 54.45200000 42.73300000 55.67100000
N 53.07700000 44.42900000 54.94600000
C 52.35600000 44.83600000 53.87900000
P 54.63500000 50.42000000 53.74100000
O 55.14500000 51.72600000 54.23800000
O 54.46500000 50.20400000 52.26900000
O 55.56300000 49.26100000 54.34200000
C 55.92500000 49.24600000 55.74200000
C 56.83600000 48.07500000 56.04900000
O 56.12200000 46.82800000 55.83000000
C 58.09000000 47.94700000 55.19700000
O 59.17400000 48.75300000 55.65100000
C 58.41600000 46.46300000 55.29800000
O 59.14000000 46.13600000 56.46600000
C 57.02200000 45.83600000 55.35600000
N 56.57000000 45.36400000 54.02900000
C 57.09400000 44.15700000 53.52000000
O 57.92100000 43.51600000 54.19800000
N 56.68600000 43.72100000 52.30100000
C 55.80200000 44.43700000 51.59700000
N 55.43000000 43.97200000 50.39700000
C 55.25900000 45.66000000 52.08900000
C 55.66300000 46.08000000 53.29600000
P 60.18400000 49.41900000 54.57400000
O 61.01500000 50.42200000 55.29500000
O 59.37100000 49.85700000 53.40400000
O 61.13700000 48.21900000 54.10500000
C 62.17500000 47.72400000 54.96900000
C 62.76900000 46.44300000 54.42200000
O 61.73400000 45.42700000 54.29900000
C 63.40500000 46.49900000 53.04000000
O 64.74100000 47.02900000 53.06000000
C 63.35900000 45.03200000 52.60800000
O 64.41100000 44.25600000 53.15500000
C 62.01800000 44.57200000 53.19400000
N 60.93400000 44.67500000 52.20200000
C 60.02400000 45.70200000 52.05000000
N 59.25200000 45.55600000 51.00300000
C 59.65500000 44.34800000 50.44700000
C 59.18900000 43.67500000 49.29200000
O 58.28700000 44.01300000 48.52200000
N 59.89300000 42.49100000 49.07200000
C 60.90600000 42.00600000 49.87600000
N 61.51200000 40.87300000 49.47900000
N 61.31200000 42.60500000 50.98300000
C 60.66600000 43.77400000 51.19300000
P 65.29500000 47.86800000 51.79300000
O 66.53800000 48.56200000 52.24600000
O 64.19300000 48.67900000 51.20900000
O 65.72000000 46.75200000 50.72400000
C 66.78900000 45.84300000 51.01900000
C 66.74900000 44.63400000 50.11400000
O 65.48400000 43.93900000 50.25800000
C 66.88100000 44.84000000 48.61100000
O 68.23000000 44.97700000 48.17600000
C 66.31800000 43.53800000 48.06400000
O 67.28300000 42.51400000 48.12200000
C 65.19200000 43.24100000 49.05100000
N 63.92300000 43.71600000 48.50000000
C 63.20400000 44.84300000 48.84200000
N 62.14000000 45.01300000 48.10700000
C 62.14400000 43.92600000 47.24300000
C 61.24600000 43.57300000 46.20600000
O 60.18200000 44.13600000 45.87400000
N 61.67200000 42.42800000 45.54000000
C 62.78800000 41.68600000 45.86700000
N 63.03400000 40.58800000 45.13500000
N 63.61200000 41.99400000 46.85000000
C 63.23900000 43.11700000 47.48000000
P 68.53000000 45.72200000 46.78900000
O 69.99100000 45.84200000 46.54800000
O 67.68500000 46.95900000 46.83400000
O 67.95700000 44.73500000 45.67500000
C 68.64800000 43.52900000 45.32300000
C 67.92700000 42.84400000 44.19100000
O 66.58900000 42.48000000 44.64600000
C 67.66500000 43.71500000 42.96400000
O 68.74700000 43.76900000 42.05100000
C 66.45500000 43.02400000 42.35500000
O 66.86400000 41.79800000 41.73100000
C 65.64600000 42.71900000 43.61500000
N 64.77900000 43.84300000 44.02100000
C 64.93800000 44.80300000 45.01600000
N 63.92500000 45.64900000 45.11300000
C 63.04900000 45.22000000 44.11500000
C 61.79600000 45.68800000 43.68300000
N 61.11000000 46.68800000 44.23200000
N 61.23300000 45.05700000 42.64400000
C 61.87000000 44.01700000 42.07400000
N 63.02400000 43.46700000 42.39900000
C 63.57100000 44.11900000 43.43700000
P 69.15000000 45.17900000 41.39200000
O 70.51100000 44.92600000 40.83600000
O 68.95300000 46.28300000 42.38100000
O 68.11900000 45.35800000 40.18400000
C 67.91200000 44.27100000 39.25800000
C 66.57900000 44.40000000 38.56500000
O 65.48600000 44.32400000 39.51300000
C 66.34400000 45.70800000 37.85000000
O 66.96400000 45.69600000 36.59000000
C 64.83300000 45.73300000 37.72700000
O 64.43100000 44.86400000 36.68400000
C 64.41300000 45.11300000 39.05700000
N 64.06500000 46.11100000 40.07900000
C 62.79800000 46.65800000 39.97700000
O 62.02100000 46.33300000 39.09900000
N 62.48700000 47.58200000 40.92400000
C 63.27200000 48.00200000 41.97500000
O 62.82200000 48.82900000 42.75200000
C 64.58300000 47.39500000 42.03200000
C 64.92600000 46.49700000 41.08400000
P 67.46300000 47.07400000 35.96900000
O 68.31800000 46.75600000 34.82200000
O 67.94500000 47.94800000 37.07700000
O 66.10400000 47.72400000 35.45500000
C 65.28500000 47.02400000 34.45900000
C 64.05500000 47.85200000 34.10100000
O 63.29700000 48.10700000 35.32600000
C 64.31700000 49.19700000 33.45900000
O 63.40200000 49.39400000 32.37800000
C 64.09700000 50.17100000 34.62400000
O 63.59500000 51.41700000 34.24600000
C 63.01500000 49.47500000 35.44200000
N 63.05600000 49.85800000 36.86400000
C 62.01100000 50.62800000 37.34300000
O 61.08700000 50.96600000 36.65300000
N 62.11200000 50.99300000 38.65900000
C 63.13100000 50.68400000 39.54100000
O 63.10500000 51.14300000 40.69900000
C 64.17900000 49.86500000 38.97100000
C 64.10600000 49.49000000 37.69100000
P 63.88400000 49.28200000 30.85800000
O 62.85200000 49.89900000 29.95200000
O 64.44200000 47.95500000 30.54700000
O 65.17100000 50.25400000 30.73300000
C 64.99400000 51.67600000 30.50000000
C 66.10500000 52.23600000 29.62800000
O 67.42800000 52.11900000 30.26100000
C 66.26900000 51.51900000 28.29700000
O 65.32100000 51.88700000 27.31400000
C 67.68500000 51.90600000 27.90000000
O 67.74300000 53.22400000 27.43300000
C 68.40700000 51.83000000 29.25500000
N 68.91400000 50.46900000 29.50100000
C 70.12500000 50.07800000 28.93100000
O 70.83500000 50.81900000 28.27800000
N 70.48100000 48.77800000 29.17000000
C 69.80800000 47.85600000 29.92200000
O 70.21500000 46.70400000 29.96300000
C 68.61200000 48.32800000 30.49000000
C 68.21400000 49.59200000 30.26500000
P 64.75500000 50.73100000 26.31100000
O 63.28700000 50.73600000 26.31200000
O 65.44700000 49.41500000 26.51900000
O 65.22100000 51.27000000 24.94800000
C 64.64600000 52.43300000 24.36900000
C 64.53100000 52.21500000 22.90400000
O 65.88700000 52.09000000 22.40600000
C 63.82000000 50.92300000 22.46600000
O 63.14000000 51.18000000 21.23600000
C 64.97900000 49.99700000 22.15500000
O 64.68600000 49.01600000 21.19400000
C 65.98500000 50.96900000 21.57100000
N 67.37600000 50.49700000 21.58500000
C 67.85100000 49.35600000 22.15900000
N 69.14900000 49.19500000 22.01000000
C 69.52700000 50.29800000 21.28800000
C 70.73000000 50.66300000 20.79300000
N 71.79700000 49.92200000 20.99400000
N 70.81700000 51.79400000 20.07200000
C 69.70100000 52.54700000 19.93200000
N 68.46900000 52.28700000 20.36900000
C 68.44600000 51.11700000 21.02600000
P 59.47400000 46.41800000 23.81800000
O 58.36700000 46.41700000 24.80200000
O 60.58500000 47.42500000 23.96700000
O 60.06400000 44.93700000 23.79700000
C 59.23400000 43.81400000 23.44700000
C 60.09100000 42.60800000 23.22100000
O 60.88600000 42.80100000 22.02800000
C 61.09100000 42.40600000 24.33500000
O 60.49800000 41.64400000 25.37200000
C 62.25200000 41.70100000 23.64000000
O 62.07200000 40.31400000 23.58700000
C 62.18900000 42.29400000 22.23000000
N 63.14500000 43.39700000 21.99900000
C 64.48400000 43.09100000 21.73800000
O 64.83300000 41.89500000 21.70800000
N 65.36500000 44.10600000 21.52700000
C 64.94100000 45.37600000 21.55500000
N 65.82900000 46.35300000 21.30100000
C 63.58600000 45.70900000 21.82200000
C 62.73200000 44.69800000 22.03500000
P 60.97600000 41.85300000 26.87400000
O 60.12300000 41.03900000 27.78300000
O 61.08000000 43.31600000 27.11700000
O 62.44100000 41.24400000 26.88600000
C 62.65200000 39.83700000 26.71800000
C 64.12100000 39.54400000 26.59400000
O 64.63500000 40.15400000 25.38500000
C 65.01500000 40.11900000 27.68400000
O 65.04400000 39.36200000 28.89800000
C 66.38400000 40.15900000 27.00700000
O 67.07200000 38.92200000 27.08100000
C 66.01300000 40.47800000 25.56500000
N 66.26000000 41.88900000 25.20300000
C 67.56500000 42.25000000 24.87200000
O 68.51200000 41.46200000 24.91400000
N 67.73600000 43.57700000 24.52000000
C 66.75500000 44.56700000 24.49700000
O 67.06900000 45.72200000 24.20300000
C 65.43600000 44.11400000 24.86400000
C 65.24100000 42.83100000 25.19300000
P 65.49800000 40.09500000 30.25100000
O 65.47700000 39.15900000 31.39900000
O 64.70900000 41.32300000 30.31400000
O 67.01000000 40.39900000 29.84600000
C 67.84300000 41.28300000 30.55800000
C 69.10200000 41.51600000 29.76200000
O 68.81800000 42.10300000 28.45900000
C 70.08400000 42.47700000 30.38900000
O 70.86700000 41.78400000 31.35100000
C 70.92500000 42.92200000 29.20400000
O 71.95000000 41.97800000 29.00400000
C 69.90900000 42.91900000 28.05400000
N 69.39000000 44.25600000 27.66800000
C 70.23600000 45.16200000 26.99900000
O 71.42900000 44.83400000 26.78100000
N 69.73600000 46.37600000 26.60400000
C 68.47800000 46.70200000 26.90700000
N 68.05000000 47.91300000 26.57600000
C 67.59600000 45.79500000 27.58100000
C 68.08500000 44.60200000 27.93700000
P 71.49900000 42.58200000 32.58500000
O 71.59200000 41.64700000 33.72300000
O 70.79500000 43.87700000 32.73200000
O 72.99600000 42.89400000 32.14300000
C 73.29100000 44.00400000 31.33700000
C 74.61200000 43.81500000 30.62600000
O 74.37200000 44.17800000 29.22900000
C 75.61700000 44.84100000 31.12000000
O 76.40900000 44.37300000 32.21400000
C 76.41000000 45.18700000 29.87800000
O 77.40600000 44.22200000 29.56200000
C 75.32500000 45.14700000 28.80500000
N 74.63900000 46.43700000 28.56800000
C 73.33200000 46.80000000 28.85000000
N 73.03000000 48.02900000 28.49500000
C 74.20500000 48.49600000 27.96300000
C 74.55100000 49.72200000 27.45100000
N 73.71500000 50.77800000 27.42200000
N 75.82000000 49.86700000 26.97200000
C 76.65800000 48.82400000 27.05800000
N 76.44900000 47.63300000 27.54600000
C 75.19400000 47.52300000 27.99300000
P 76.46300000 45.22700000 33.56000000
O 77.57700000 44.56100000 34.37300000
O 75.02000000 45.30800000 34.12700000
O 76.97700000 46.68200000 33.17900000
C 78.21600000 46.87300000 32.47500000
C 78.27400000 48.24800000 31.86700000
O 77.35300000 48.42400000 30.76200000
C 77.99200000 49.40000000 32.79300000
O 79.17600000 49.64100000 33.52600000
C 77.69600000 50.52800000 31.80300000
O 78.88000000 51.10200000 31.27600000
C 76.94100000 49.77900000 30.68600000
N 75.50500000 49.81300000 30.96100000
C 74.77500000 48.83600000 31.61200000
N 73.53700000 49.20300000 31.86100000
C 73.43900000 50.46400000 31.29800000
C 72.35100000 51.38300000 31.27100000
O 71.26100000 51.26000000 31.75600000
N 72.68300000 52.56900000 30.60700000
C 73.89600000 52.85800000 30.09400000
N 74.04700000 54.08300000 29.58100000
N 74.92500000 52.00800000 30.08900000
C 74.63200000 50.84200000 30.71400000
P 81.80400000 57.49100000 38.80300000
O 82.77300000 58.10000000 39.71500000
O 80.72400000 56.63800000 39.36800000
O 81.03800000 58.58000000 37.95000000
C 80.28800000 58.20100000 36.77800000
C 80.10000000 59.41200000 35.90200000
O 79.41700000 60.43000000 36.70500000
C 81.42600000 60.03800000 35.45600000
O 81.31300000 60.69100000 34.17300000
C 81.63800000 61.16500000 36.43700000
O 82.41700000 62.20500000 35.77300000
C 80.19100000 61.61500000 36.65800000
N 79.89300000 62.45700000 37.81800000
C 80.39900000 62.36100000 39.09400000
N 79.99200000 63.33200000 39.88300000
C 79.16500000 64.09500000 39.07400000
C 78.46900000 65.25900000 39.35900000
O 78.49100000 65.88900000 40.41100000
N 77.69800000 65.71100000 38.25700000
C 77.63400000 65.07700000 37.07600000
N 76.85000000 65.60500000 36.12700000
N 78.31200000 63.96000000 36.79700000
C 79.05300000 63.53900000 37.81700000
P 81.70500000 59.93500000 32.85500000
O 80.75100000 58.78000000 32.63200000
O 83.18500000 59.68300000 32.79200000
O 81.42900000 61.06500000 31.78000000
C 80.05300000 61.45900000 31.45600000
C 80.10500000 62.50800000 30.40700000
O 80.77900000 63.63100000 30.99100000
C 80.90700000 62.11600000 29.17100000
O 80.38900000 62.86800000 28.08300000
C 82.30500000 62.67900000 29.46200000
O 82.89200000 63.16000000 28.28400000
C 81.96500000 63.91200000 30.28300000
N 82.92200000 64.30100000 31.30300000
C 83.80800000 63.51000000 32.00200000
N 84.33000000 64.13500000 33.02600000
C 83.80300000 65.41200000 32.95400000
C 83.99800000 66.55300000 33.81000000
O 84.71500000 66.64500000 34.86100000
N 83.24600000 67.65400000 33.36200000
C 82.43800000 67.66700000 32.26200000
N 81.75300000 68.81200000 32.04400000
N 82.27900000 66.62100000 31.44300000
C 82.97600000 65.53700000 31.86200000
P 79.21200000 62.27000000 27.16900000
O 78.63200000 63.43500000 26.46000000
O 78.41800000 61.53500000 28.12900000
O 79.95200000 61.35800000 26.11000000
C 80.56100000 61.90400000 24.94500000
C 80.52900000 60.87900000 23.84900000
O 81.42000000 59.80800000 24.20300000
C 79.16400000 60.22900000 23.67900000
O 78.37300000 60.96400000 22.74800000
C 79.54000000 58.87900000 23.11500000
O 79.93500000 59.00500000 21.77600000
C 80.83600000 58.58000000 23.87600000
N 80.55700000 57.87900000 25.12800000
C 80.80800000 58.30900000 26.41300000
N 80.36200000 57.47100000 27.31600000
C 79.81900000 56.43100000 26.57600000
C 79.21400000 55.25100000 26.98500000
O 79.01000000 54.84500000 28.14100000
N 78.81100000 54.47400000 25.89400000
C 78.99300000 54.79500000 24.57600000
N 78.54600000 53.87900000 23.64800000
N 79.56700000 55.90200000 24.17700000
C 79.95100000 56.67100000 25.22500000
P 76.96000000 61.54100000 23.21300000
O 76.32400000 62.05400000 21.98900000
O 77.19300000 62.45600000 24.35000000
O 76.16600000 60.28900000 23.79000000
C 75.60400000 59.32900000 22.91400000
C 75.62200000 58.00100000 23.58000000
O 74.86400000 57.95800000 24.80800000
C 75.12500000 56.85200000 22.73500000
O 76.25000000 56.58100000 21.88300000
C 74.81500000 55.80600000 23.78800000
O 76.03400000 55.15800000 24.22000000
C 74.30400000 56.66600000 24.95500000
N 72.84300000 56.83400000 25.06500000
C 72.12200000 57.96800000 24.72000000
N 70.82800000 57.86400000 24.96800000
C 70.69500000 56.58100000 25.51600000
C 69.59600000 55.87200000 26.03100000
N 68.32700000 56.34100000 26.07300000
N 69.81700000 54.66800000 26.53600000
C 71.06400000 54.18600000 26.53100000
N 72.16900000 54.73400000 26.09700000
C 71.92700000 55.94800000 25.58000000
P 76.12200000 55.60700000 20.62400000
O 77.34700000 55.81100000 19.85300000
O 74.79600000 55.96600000 20.02000000
O 76.10700000 54.25500000 21.42000000
C 75.58800000 53.05800000 20.89600000
C 76.29200000 51.91600000 21.58100000
O 76.03200000 51.93400000 23.01800000
C 75.79400000 50.58500000 21.10200000
O 76.42700000 50.21600000 19.87400000
C 75.98600000 49.70700000 22.31500000
O 77.32100000 49.25200000 22.47800000
C 75.60500000 50.67100000 23.44400000
N 74.15700000 50.72200000 23.75700000
C 73.30600000 51.78500000 23.61800000
N 72.09500000 51.52900000 24.05200000
C 72.14700000 50.22000000 24.47600000
C 71.13800000 49.38500000 25.01100000
O 69.93600000 49.64800000 25.25200000
N 71.62400000 48.12800000 25.27000000
C 72.89900000 47.70300000 25.05000000
N 73.15800000 46.40900000 25.36400000
N 73.83700000 48.45400000 24.56600000
C 73.40000000 49.69500000 24.28800000
P 75.57100000 49.40400000 18.78400000
O 76.23000000 49.55900000 17.49700000
O 74.08000000 49.75900000 18.88100000
O 75.63600000 47.93800000 19.33200000
C 76.91200000 47.31800000 19.63300000
C 76.70500000 45.97500000 20.25700000
O 76.08900000 46.10300000 21.54700000
C 75.79400000 45.02800000 19.48600000
O 76.50000000 44.36800000 18.44600000
C 75.35600000 44.06000000 20.56300000
O 76.42300000 43.12500000 20.75400000
C 75.21000000 45.01000000 21.77100000
N 73.85800000 45.57800000 21.88500000
C 73.46100000 46.82200000 21.43900000
N 72.23400000 47.14000000 21.77200000
C 71.77200000 46.01700000 22.43800000
C 70.52900000 45.71000000 23.01900000
N 69.52100000 46.59400000 23.13800000
N 70.36800000 44.47000000 23.51700000
C 71.40500000 43.61500000 23.47000000
N 72.64300000 43.81100000 23.00800000
C 72.75800000 45.03500000 22.48700000
P 75.69100000 43.81400000 17.17000000
O 76.74400000 43.26900000 16.28600000
O 74.75200000 44.88900000 16.69100000
O 74.79500000 42.67000000 17.75600000
C 75.37800000 41.49200000 18.21800000
C 74.31300000 40.62200000 18.74700000
O 73.79900000 41.19800000 19.97500000
C 73.09400000 40.48400000 17.85500000
O 73.28700000 39.48600000 16.85000000
C 72.05600000 40.03700000 18.86700000
O 72.32400000 38.67600000 19.16900000
C 72.41200000 40.92500000 20.07300000
N 71.68700000 42.19500000 20.01300000
C 72.12600000 43.37700000 19.47100000
N 71.21800000 44.31500000 19.47200000
C 70.11400000 43.71500000 20.07000000
C 68.83100000 44.24200000 20.33600000
O 68.39000000 45.39600000 20.05700000
N 68.01100000 43.29900000 20.96500000
C 68.39000000 42.01300000 21.28400000
N 67.44600000 41.23400000 21.84300000
N 69.59900000 41.52100000 21.05000000
C 70.39600000 42.41900000 20.43500000
P 72.66000000 39.69900000 15.39200000
O 73.08200000 38.53000000 14.53900000
O 72.89700000 41.06700000 14.88600000
O 71.11000000 39.46900000 15.64500000
C 70.61900000 38.18000000 16.05200000
C 69.17000000 38.27500000 16.49100000
O 69.09800000 39.15200000 17.65300000
C 68.15600000 38.89900000 15.53100000
O 67.62900000 38.01200000 14.53300000
C 67.04500000 39.33600000 16.48100000
O 66.27600000 38.23800000 16.92200000
C 67.84400000 39.81800000 17.68500000
N 68.04000000 41.26300000 17.58900000
C 67.00500000 42.09200000 18.01600000
O 65.98900000 41.57900000 18.47500000
N 67.13600000 43.42800000 17.89700000
C 68.24000000 43.94900000 17.34100000
N 68.31600000 45.28700000 17.21200000
C 69.31600000 43.12900000 16.89900000
C 69.18500000 41.80200000 17.06200000
P 62.86000000 40.70900000 10.56900000
O 61.69000000 39.90900000 10.05600000
O 64.24400000 40.34300000 10.16500000
O 62.61400000 42.21800000 10.15500000
C 61.43700000 42.89900000 10.56100000
C 61.59400000 44.37800000 10.32100000
O 62.47600000 44.95500000 11.33000000
C 62.21000000 44.81400000 9.00400000
O 61.25600000 44.86500000 7.94300000
C 62.69300000 46.22300000 9.33900000
O 61.64000000 47.16700000 9.30100000
C 63.15900000 46.06400000 10.78700000
N 64.61200000 45.81800000 10.87700000
C 65.47200000 46.86800000 10.63400000
O 64.98100000 47.97800000 10.34800000
N 66.82100000 46.65900000 10.72200000
C 67.27500000 45.45200000 11.05600000
N 68.58600000 45.27200000 11.18000000
C 66.40200000 44.36400000 11.29100000
C 65.09500000 44.58900000 11.19200000
P 61.71500000 44.55100000 6.42900000
O 60.46400000 44.44100000 5.64000000
O 62.64800000 43.40100000 6.47900000
O 62.55300000 45.81600000 5.94100000
C 61.91000000 47.04700000 5.64700000
C 62.91800000 48.09900000 5.24600000
O 63.71900000 48.47600000 6.40200000
C 63.94200000 47.72100000 4.18700000
O 63.46600000 47.77900000 2.83800000
C 65.05600000 48.72700000 4.46100000
O 64.77400000 50.02500000 3.95200000
C 65.04600000 48.76700000 5.98700000
N 65.95800000 47.72500000 6.53200000
C 67.33800000 47.99900000 6.61600000
O 67.76100000 49.11900000 6.24000000
N 68.17500000 47.03400000 7.10100000
C 67.67600000 45.85400000 7.49300000
N 68.51500000 44.93400000 7.97800000
C 66.28400000 45.56000000 7.41200000
C 65.47300000 46.51600000 6.93600000
P 64.13400000 46.81000000 1.71500000
O 63.38900000 47.10900000 0.45700000
O 64.17900000 45.39500000 2.21900000
O 65.64100000 47.32800000 1.54000000
C 65.90300000 48.64700000 0.97200000
C 67.38400000 49.00900000 1.02700000
O 67.81500000 49.12100000 2.41200000
C 68.42300000 48.08400000 0.39900000
O 68.57600000 48.22600000 -1.00300000
C 69.70200000 48.52600000 1.09200000
O 70.23400000 49.72100000 0.53000000
C 69.19600000 48.78900000 2.50900000
N 69.33500000 47.57600000 3.31500000
C 68.37800000 46.64700000 3.65300000
N 68.84700000 45.63000000 4.32100000
C 70.19800000 45.92300000 4.44800000
C 71.24500000 45.23100000 5.03800000
N 71.08200000 44.06600000 5.68700000
N 72.48100000 45.77600000 4.95200000
C 72.62000000 46.94200000 4.32900000
N 71.69900000 47.69800000 3.75100000
C 70.50200000 47.11900000 3.84500000
P 69.14800000 46.98600000 -1.87500000
O 68.83000000 47.36500000 -3.27700000
O 68.65900000 45.68800000 -1.32300000
O 70.73800000 46.97900000 -1.64800000
C 71.55200000 48.15900000 -1.88900000
C 72.93300000 47.99600000 -1.28100000
O 72.83000000 47.80500000 0.15700000
C 73.71600000 46.78500000 -1.75400000
O 74.38000000 47.05500000 -2.97800000
C 74.69000000 46.53200000 -0.60300000
O 75.81500000 47.37900000 -0.63600000
C 73.83900000 46.90300000 0.60500000
N 73.20400000 45.71900000 1.18400000
C 71.87200000 45.37600000 1.15500000
N 71.62300000 44.23500000 1.75000000
C 72.86800000 43.79800000 2.20300000
C 73.23800000 42.61100000 2.90900000
O 72.51200000 41.67700000 3.31500000
N 74.61400000 42.56200000 3.13300000
C 75.51300000 43.52400000 2.73800000
N 76.79700000 43.28200000 3.01500000
N 75.18000000 44.63500000 2.10600000
C 73.85300000 44.70300000 1.86600000
P 74.53000000 45.88600000 -4.07500000
O 75.31900000 46.47100000 -5.19500000
O 73.19300000 45.30300000 -4.33700000
O 75.40500000 44.78500000 -3.33300000
C 76.78200000 45.01800000 -3.04700000
C 77.34600000 43.84800000 -2.30000000
O 76.68800000 43.76000000 -1.02000000
C 77.12300000 42.48500000 -2.93800000
O 78.10200000 42.18500000 -3.93300000
C 77.16600000 41.54300000 -1.73500000
O 78.47600000 41.20200000 -1.32400000
C 76.51800000 42.40300000 -0.64900000
N 75.08300000 42.16400000 -0.54100000
C 74.08300000 42.88100000 -1.15200000
N 72.87700000 42.45400000 -0.86900000
C 73.09300000 41.37900000 -0.01900000
C 72.21000000 40.49800000 0.64200000
N 70.86700000 40.56800000 0.53600000
N 72.75700000 39.53300000 1.42800000
C 74.10300000 39.47300000 1.53000000
N 75.02700000 40.24400000 0.95800000
C 74.45300000 41.18600000 0.18900000
P 76.97100000 35.96200000 -6.78300000
O 78.04400000 35.15100000 -7.42000000
O 76.43700000 37.17000000 -7.49000000
O 75.69900000 35.05300000 -6.50500000
C 75.82200000 33.74100000 -5.95100000
C 74.45700000 33.09500000 -5.87000000
O 73.65500000 33.72900000 -4.82800000
C 73.60100000 33.20800000 -7.12900000
O 73.93500000 32.21200000 -8.11000000
C 72.19000000 33.04100000 -6.57500000
O 71.91700000 31.66800000 -6.34000000
C 72.28900000 33.76900000 -5.22600000
N 71.84700000 35.17700000 -5.29100000
C 70.50400000 35.47600000 -4.99000000
O 69.69600000 34.63700000 -4.61300000
N 70.15500000 36.79900000 -5.13900000
C 70.97500000 37.84100000 -5.53500000
O 70.49400000 38.96600000 -5.72000000
C 72.33900000 37.46200000 -5.78700000
C 72.71800000 36.18100000 -5.66000000
P 69.28700000 35.95900000 -8.63700000
O 68.96300000 37.37200000 -8.98800000
O 70.61300000 35.62900000 -8.02700000
O 68.13800000 35.40900000 -7.67400000
C 66.79100000 35.23300000 -8.15800000
C 65.99900000 34.34800000 -7.21600000
O 66.33000000 32.95700000 -7.42600000
C 66.22800000 34.57500000 -5.73300000
O 65.47700000 35.68900000 -5.24600000
C 65.80600000 33.24100000 -5.12200000
O 64.41500000 33.13000000 -4.90200000
C 66.20200000 32.25100000 -6.21700000
N 67.45800000 31.56800000 -5.95300000
C 68.71400000 31.90800000 -6.38200000
N 69.65000000 31.09500000 -5.96900000
C 68.96400000 30.15800000 -5.21700000
C 69.39400000 29.03000000 -4.50500000
N 70.67600000 28.64600000 -4.44200000
N 68.45400000 28.30200000 -3.85300000
C 67.17300000 28.69400000 -3.93600000
N 66.65000000 29.73700000 -4.58200000
C 67.61200000 30.43500000 -5.20300000
P 66.11300000 36.64700000 -4.11500000
O 65.04500000 37.62300000 -3.73800000
O 67.43200000 37.15600000 -4.60000000
O 66.37400000 35.63900000 -2.91100000
C 65.30200000 34.81300000 -2.45100000
C 65.80100000 33.69800000 -1.56500000
O 66.56800000 32.69600000 -2.28800000
C 66.71200000 33.99900000 -0.38800000
O 66.03100000 34.64400000 0.70100000
C 67.16200000 32.58700000 0.01000000
O 66.27800000 31.93200000 0.89600000
C 67.14300000 31.83300000 -1.32800000
N 68.48800000 31.41400000 -1.71900000
C 69.43700000 32.00000000 -2.53000000
N 70.58800000 31.36100000 -2.53700000
C 70.36900000 30.26700000 -1.70000000
C 71.19500000 29.19200000 -1.27800000
N 72.46200000 29.01700000 -1.67300000
N 70.65800000 28.28300000 -0.43000000
C 69.38500000 28.42900000 -0.05200000
N 68.51200000 29.37600000 -0.38300000
C 69.07400000 30.27700000 -1.21300000
P 69.07500000 33.98400000 6.91500000
O 68.60700000 34.32500000 8.27900000
O 69.34400000 35.07100000 5.94000000
O 70.39300000 33.11200000 7.05100000
C 70.41700000 31.92900000 7.85900000
C 71.78300000 31.31000000 7.80400000
O 72.01900000 30.78600000 6.47200000
C 72.87600000 32.33900000 8.00800000
O 73.10700000 32.62300000 9.36900000
C 74.04600000 31.76800000 7.21800000
O 74.79100000 30.77500000 7.90300000
C 73.30800000 31.17800000 6.01500000
N 73.10100000 32.18800000 4.97100000
C 71.91100000 32.81400000 4.66000000
N 72.00400000 33.67500000 3.67900000
C 73.34400000 33.61700000 3.31200000
C 74.08100000 34.29200000 2.31500000
N 73.53900000 35.18100000 1.47100000
N 75.40400000 34.01500000 2.21400000
C 75.93800000 33.10800000 3.05500000
N 75.34600000 32.40200000 4.02600000
C 74.03500000 32.70800000 4.10400000
P 80.31300000 42.44700000 9.76700000
O 81.42700000 42.96500000 10.60900000
O 79.04900000 42.01600000 10.41200000
O 79.98400000 43.55200000 8.66900000
C 81.03600000 44.14300000 7.91800000
C 80.49800000 45.16800000 6.95300000
O 79.68000000 44.52600000 5.94200000
C 79.59200000 46.25100000 7.50800000
O 80.28300000 47.29200000 8.16000000
C 78.88700000 46.73700000 6.25100000
O 79.68600000 47.53900000 5.40700000
C 78.65100000 45.42400000 5.52700000
N 77.35800000 44.85100000 5.92800000
C 76.19700000 45.43000000 5.43000000
O 76.19000000 46.41800000 4.72300000
N 75.04600000 44.80800000 5.80300000
C 74.92800000 43.71000000 6.59600000
O 73.82600000 43.20300000 6.73500000
C 76.15400000 43.18600000 7.09900000
C 77.30200000 43.76700000 6.75300000
P 79.70500000 47.86100000 9.54500000
O 80.84600000 48.57700000 10.14800000
O 79.06000000 46.76900000 10.29200000
O 78.63800000 48.93000000 9.05900000
C 79.00100000 49.87700000 8.05400000
C 77.76900000 50.43300000 7.37200000
O 77.03200000 49.36500000 6.70400000
C 76.72600000 51.06700000 8.27200000
O 77.06000000 52.38900000 8.66000000
C 75.48000000 51.02900000 7.39700000
O 75.44400000 52.12200000 6.48900000
C 75.65700000 49.68800000 6.67100000
N 74.90600000 48.60100000 7.30200000
C 75.38100000 47.53500000 8.03000000
N 74.43100000 46.73000000 8.43300000
C 73.26500000 47.31100000 7.95100000
C 71.90100000 46.88700000 8.04900000
O 71.45700000 45.89200000 8.57200000
N 71.04400000 47.77600000 7.42100000
C 71.43900000 48.90600000 6.76000000
N 70.48100000 49.64800000 6.20400000
N 72.69600000 49.29700000 6.64300000
C 73.54400000 48.46300000 7.26300000
P 76.34800000 53.02400000 9.95300000
O 76.99700000 54.35000000 10.24600000
O 76.33000000 51.94600000 10.98500000
O 74.84400000 53.24500000 9.47200000
C 74.54300000 54.21100000 8.45400000
C 73.05900000 54.26400000 8.20400000
O 72.59500000 52.97600000 7.73600000
C 72.19000000 54.54100000 9.41400000
O 72.14300000 55.92700000 9.69600000
C 70.85200000 53.98200000 8.96300000
O 70.27700000 54.84200000 8.00800000
C 71.29500000 52.73000000 8.21900000
N 71.35000000 51.54600000 9.07100000
C 72.45100000 50.99300000 9.65800000
N 72.18200000 49.89800000 10.32100000
C 70.82600000 49.72900000 10.16100000
C 69.96500000 48.71300000 10.61500000
O 70.23000000 47.68800000 11.22100000
N 68.65200000 48.96400000 10.25900000
C 68.21700000 50.03700000 9.55500000
N 66.86900000 50.11900000 9.35400000
N 69.00800000 50.96900000 9.09000000
C 70.29100000 50.75600000 9.42500000
P 71.83000000 56.43400000 11.19100000
O 72.14300000 57.88700000 11.17900000
O 72.47700000 55.54200000 12.20300000
O 70.25100000 56.22000000 11.34100000
C 69.31700000 56.87900000 10.46500000
C 67.97100000 56.19100000 10.52300000
O 68.13500000 54.79400000 10.17300000
C 67.27700000 56.14000000 11.87100000
O 66.52300000 57.31600000 12.12300000
C 66.36500000 54.93100000 11.74400000
O 65.16200000 55.20600000 11.06100000
C 67.20800000 53.99600000 10.88700000
N 67.97000000 53.04200000 11.68500000
C 69.29000000 53.12200000 12.06300000
N 69.69700000 52.09100000 12.76700000
C 68.57000000 51.27600000 12.85600000
C 68.34500000 50.02900000 13.43300000
N 69.27800000 49.33100000 14.09200000
N 67.10100000 49.48200000 13.31300000
C 66.17600000 50.17000000 12.65300000
N 66.26800000 51.35100000 12.07500000
C 67.50000000 51.85800000 12.20300000
P 66.47000000 57.91400000 13.62000000
O 65.44400000 58.99600000 13.65900000
O 67.86200000 58.22800000 14.01100000
O 65.90500000 56.68300000 14.44400000
C 64.53300000 56.28700000 14.31100000
C 64.25500000 55.15800000 15.24800000
O 65.01700000 54.00200000 14.82900000
C 64.68500000 55.40800000 16.68100000
O 63.61600000 56.05900000 17.35900000
C 64.89400000 53.99100000 17.19000000
O 63.64500000 53.38200000 17.45300000
C 65.45600000 53.27700000 15.95400000
N 66.92000000 53.20200000 15.90900000
C 67.77200000 54.14900000 15.38600000
N 69.03100000 53.83300000 15.50700000
C 69.01400000 52.60100000 16.13400000
C 70.07000000 51.81600000 16.55100000
O 71.29200000 52.02800000 16.41000000
N 69.63600000 50.68500000 17.19600000
C 68.33800000 50.33200000 17.39000000
N 68.16400000 49.15000000 17.99600000
N 67.30100000 51.07200000 17.00400000
C 67.71900000 52.19300000 16.39000000
P 61.60700000 57.69800000 23.77700000
O 60.80400000 56.46400000 23.97000000
O 61.26400000 58.63900000 22.66100000
O 61.58700000 58.59800000 25.08900000
C 62.34100000 59.80000000 25.12400000
C 62.48200000 60.25500000 26.54500000
O 61.24100000 60.81400000 27.04000000
C 62.83300000 59.11600000 27.49300000
O 63.65800000 59.70500000 28.46500000
C 61.48800000 58.71000000 28.08800000
O 61.62000000 58.06500000 29.34200000
C 60.79800000 60.07500000 28.16700000
N 59.33200000 60.08700000 28.14900000
C 58.68600000 60.79700000 29.15700000
O 59.28100000 61.40000000 30.03500000
N 57.31900000 60.78400000 29.07900000
C 56.55200000 60.16500000 28.12300000
O 55.33200000 60.32500000 28.14000000
C 57.28900000 59.45200000 27.12100000
C 58.61300000 59.43600000 27.16400000
P 65.23500000 59.64800000 28.26000000
O 65.82300000 60.62700000 29.20800000
O 65.45500000 59.76900000 26.78000000
O 65.58500000 58.15500000 28.69600000
C 65.55300000 57.82100000 30.06800000
C 66.04600000 56.42400000 30.25100000
O 67.24200000 56.20300000 29.43000000
C 66.45700000 56.16800000 31.68200000
O 66.14900000 54.82100000 32.01100000
C 67.97200000 56.36600000 31.63400000
O 68.64600000 55.69600000 32.66500000
C 68.29100000 55.79900000 30.24500000
N 69.55400000 56.27900000 29.66000000
C 70.69000000 55.42100000 29.69300000
O 70.56700000 54.32600000 30.18100000
N 71.88400000 55.87500000 29.21500000
C 71.96400000 57.12700000 28.72200000
N 73.16300000 57.59200000 28.28800000
C 70.84300000 57.97800000 28.65300000
C 69.66500000 57.51800000 29.13100000
P 62.42100000 58.82800000 32.74400000
O 62.48000000 59.50200000 31.46800000
O 63.65100000 58.68300000 33.63700000
O 61.37400000 59.60500000 33.65900000
C 60.01100000 59.72800000 33.26800000
C 59.21800000 60.44400000 34.33100000
O 58.92800000 59.55200000 35.43800000
C 59.87100000 61.65500000 34.98300000
O 59.73100000 62.81700000 34.13100000
C 59.06600000 61.72500000 36.27900000
O 57.72700000 62.11500000 35.99700000
C 58.96600000 60.25900000 36.64600000
N 60.11300000 59.81200000 37.45300000
C 60.10600000 60.18300000 38.79300000
O 59.25600000 60.94100000 39.25300000
N 61.12800000 59.64800000 39.56000000
C 62.14300000 58.83100000 39.09900000
O 62.93800000 58.30800000 39.92400000
C 62.12000000 58.58100000 37.68400000
C 61.14000000 59.06800000 36.92700000
P 60.85400000 63.99200000 34.16700000
O 60.47600000 64.98700000 33.12100000
O 62.21700000 63.40200000 34.13400000
O 60.64800000 64.59500000 35.60000000
C 59.39100000 65.23100000 35.90600000
C 59.36500000 65.66800000 37.33400000
O 59.40900000 64.50100000 38.20300000
C 60.52900000 66.52700000 37.79700000
O 60.38300000 67.88700000 37.40000000
C 60.48800000 66.29200000 39.29800000
O 59.36900000 66.93800000 39.87300000
C 60.14300000 64.79900000 39.37800000
N 61.30300000 63.90200000 39.46000000
C 61.91500000 63.23800000 38.42400000
N 62.91700000 62.48300000 38.83000000
C 62.98600000 62.69000000 40.20800000
C 63.91300000 62.18800000 41.19700000
O 64.84600000 61.40400000 41.04900000
N 63.65300000 62.70600000 42.46600000
C 62.62000000 63.57300000 42.75900000
N 62.53000000 63.98500000 44.03200000
N 61.74600000 64.00700000 41.86800000
C 61.99600000 63.54800000 40.61900000
P 61.70600000 68.80300000 37.12100000
O 61.32100000 70.14200000 36.56300000
O 62.72600000 68.02500000 36.36900000
O 62.22400000 68.97800000 38.59800000
C 61.47700000 69.67200000 39.55800000
C 62.11800000 69.55900000 40.90500000
O 62.01200000 68.19000000 41.40100000
C 63.61600000 69.84500000 41.00000000
O 63.93200000 71.23700000 41.04300000
C 63.93900000 69.17600000 42.33500000
O 63.39600000 69.96700000 43.39100000
C 63.11900000 67.88800000 42.23700000
N 63.94600000 66.84500000 41.57900000
C 64.86300000 66.18200000 42.36900000
O 65.00900000 66.45400000 43.55000000
N 65.62300000 65.23100000 41.72900000
C 65.58700000 64.92200000 40.40800000
O 66.34700000 64.03600000 39.96700000
C 64.62200000 65.68000000 39.64100000
C 63.83100000 66.58700000 40.26600000
P 65.41400000 71.74600000 40.57200000
O 65.30800000 73.21100000 40.50200000
O 65.81300000 70.99800000 39.37400000
O 66.39300000 71.21100000 41.69400000
C 66.22900000 71.53800000 43.08100000
C 67.17400000 70.72400000 43.91200000
O 66.86400000 69.32300000 43.76500000
C 68.66500000 70.78200000 43.62000000
O 69.24700000 71.89500000 44.26200000
C 69.16400000 69.50000000 44.28300000
O 69.18200000 69.61200000 45.68800000
C 68.01900000 68.53700000 43.99100000
N 68.32000000 67.76100000 42.78600000
C 67.79300000 67.89300000 41.55600000
N 68.28400000 67.04200000 40.70100000
C 69.19600000 66.31900000 41.42600000
C 70.09100000 65.29700000 41.01300000
O 70.22000000 64.81500000 39.89500000
N 70.89700000 64.86900000 42.05900000
C 70.86600000 65.39600000 43.32800000
N 71.75000000 64.92000000 44.20300000
N 70.03300000 66.33200000 43.70500000
C 69.23400000 66.74300000 42.70800000
P 79.89300000 73.32300000 40.42700000
O 81.37200000 73.71400000 40.74800000
O 78.76800000 74.12100000 41.00300000
O 79.82500000 73.30400000 38.87100000
C 79.54500000 74.49400000 38.13500000
C 79.73500000 74.23900000 36.67800000
O 81.12000000 73.94600000 36.36000000
C 78.95400000 73.03600000 36.14200000
O 77.59600000 73.40500000 35.82900000
C 79.73900000 72.65900000 34.90100000
O 79.48000000 73.40000000 33.72500000
C 81.17400000 72.95500000 35.33300000
N 81.80000000 71.73900000 35.85700000
C 82.29800000 70.81800000 34.95600000
O 82.16000000 71.01300000 33.75500000
N 82.90700000 69.71600000 35.41200000
C 83.03500000 69.50300000 36.72000000
N 83.67500000 68.39900000 37.10200000
C 82.51500000 70.39700000 37.67400000
C 81.89400000 71.50300000 37.20400000
P 76.37900000 72.45800000 36.34900000
O 75.18900000 73.23100000 35.95200000
O 76.55800000 72.06400000 37.74500000
O 76.52900000 71.17300000 35.45100000
C 76.32100000 71.23300000 34.05200000
C 76.82900000 69.96400000 33.38500000
O 78.28400000 69.78600000 33.56600000
C 76.22100000 68.67200000 33.88300000
O 74.93700000 68.45700000 33.23900000
C 77.25100000 67.65000000 33.42300000
O 77.13600000 67.49200000 32.01300000
C 78.57100000 68.40400000 33.65500000
N 79.15300000 68.10600000 34.96800000
C 79.11300000 68.84000000 36.13700000
N 79.79200000 68.26600000 37.11000000
C 80.28000000 67.08700000 36.52900000
C 81.10300000 66.03700000 37.08000000
O 81.58800000 65.97400000 38.20300000
N 81.35800000 65.03300000 36.15300000
C 80.91000000 65.03600000 34.85800000
N 81.21500000 63.98200000 34.11200000
N 80.18500000 66.01700000 34.32800000
C 79.90100000 66.98900000 35.22700000
P 72.61700000 61.53000000 31.73300000
O 73.97100000 61.41000000 31.10900000
O 71.55700000 62.22200000 31.00500000
O 72.13000000 60.04800000 31.99400000
C 70.71900000 59.79400000 32.34600000
C 70.61800000 58.47200000 33.02600000
O 71.24200000 57.50200000 32.16100000
C 71.35200000 58.35700000 34.36600000
O 70.54600000 58.85500000 35.49700000
C 71.62900000 56.87200000 34.43500000
O 70.52900000 56.20000000 35.03400000
C 71.80800000 56.48300000 32.93400000
N 73.19100000 56.24400000 32.45300000
C 73.82800000 55.05500000 32.88300000
O 73.23200000 54.20100000 33.51000000
N 75.16000000 54.92000000 32.53400000
C 75.88600000 55.81100000 31.76700000
O 76.98600000 55.46800000 31.33600000
C 75.12800000 57.00400000 31.31500000
C 73.84200000 57.14800000 31.66600000
P 71.26700000 59.53900000 36.80300000
O 70.29700000 59.83700000 37.82000000
O 72.18000000 60.63800000 36.29400000
O 72.35100000 58.45900000 37.30300000
C 71.98300000 57.22300000 37.96200000
C 73.25200000 56.43600000 38.28500000
O 74.02400000 56.36000000 37.06900000
C 74.19200000 57.08000000 39.32200000
O 74.83200000 56.04300000 40.02800000
C 75.22000000 57.78900000 38.45500000
O 76.48900000 58.03900000 39.01900000
C 75.33600000 56.78600000 37.30600000
N 75.84900000 57.37000000 36.09000000
C 76.95800000 56.77500000 35.47500000
O 77.48400000 55.78300000 36.00400000
N 77.44500000 57.30800000 34.36800000
C 76.91900000 58.41000000 33.86600000
N 77.49100000 58.94300000 32.85400000
C 75.76700000 59.04000000 34.44100000
C 75.27400000 58.48900000 35.54900000
P 74.24300000 55.58400000 41.44700000
O 75.15100000 54.49000000 41.83000000
O 72.78100000 55.39800000 41.44000000
O 74.47700000 56.85300000 42.39000000
C 75.71700000 57.05900000 43.03700000
C 75.64300000 58.31600000 43.84000000
O 75.80700000 59.45600000 42.95900000
C 74.29700000 58.53100000 44.52400000
O 74.20900000 57.79900000 45.78400000
C 74.29200000 60.04000000 44.70200000
O 75.17400000 60.39700000 45.74700000
C 74.97400000 60.51500000 43.42100000
N 74.06900000 60.96000000 42.32500000
C 73.36100000 62.18000000 42.47100000
O 73.49000000 62.83900000 43.52400000
N 72.55100000 62.60000000 41.45500000
C 72.42100000 61.83800000 40.34900000
N 71.55000000 62.23700000 39.37300000
C 73.14700000 60.62300000 40.18700000
C 73.93800000 60.22100000 41.18800000
P 72.77700000 57.31900000 46.33400000
O 73.02300000 56.39000000 47.45500000
O 71.96000000 56.82000000 45.16100000
O 72.10400000 58.67000000 46.87400000
C 72.71900000 59.46000000 47.93600000
C 71.88200000 60.68400000 48.24400000
O 71.96800000 61.66000000 47.16500000
C 70.39100000 60.44200000 48.40500000
O 70.10300000 59.94500000 49.70000000
C 69.80800000 61.82700000 48.12000000
O 70.01600000 62.79300000 49.13000000
C 70.71100000 62.31200000 46.99500000
N 70.18200000 62.02100000 45.65400000
C 70.56000000 61.00400000 44.82700000
N 70.00200000 61.03800000 43.65000000
C 69.15800000 62.14000000 43.70700000
C 68.30400000 62.71500000 42.75900000
N 68.17000000 62.25500000 41.47800000
N 67.59000000 63.78800000 43.13500000
C 67.75400000 64.26800000 44.37300000
N 68.54800000 63.83500000 45.34900000
C 69.23900000 62.74700000 44.94500000
P 68.91300000 58.88100000 49.91800000
O 69.00900000 58.53200000 51.35100000
O 68.97000000 57.79000000 48.90500000
O 67.59900000 59.76200000 49.76900000
C 67.37100000 60.83600000 50.70300000
C 66.26300000 61.75000000 50.24400000
O 66.66900000 62.51200000 49.07900000
C 64.95800000 61.08900000 49.85000000
O 64.16000000 60.77100000 51.00500000
C 64.32500000 62.15400000 48.97200000
O 63.76400000 63.20900000 49.76300000
C 65.54100000 62.71300000 48.23300000
N 65.78800000 62.04100000 46.91800000
C 65.15500000 62.55300000 45.79300000
O 64.44000000 63.54100000 45.95000000
N 65.32800000 61.94600000 44.57100000
C 66.11300000 60.83900000 44.48500000
N 66.25300000 60.22900000 43.28200000
C 66.78300000 60.30800000 45.61700000
C 66.60300000 60.94100000 46.80900000
P 63.12900000 59.54200000 50.94300000
O 62.52800000 59.40200000 52.30000000
O 63.80700000 58.35900000 50.33800000
O 62.00800000 60.10000000 49.97100000
C 61.19400000 61.19800000 50.39800000
C 60.20400000 61.56900000 49.33900000
O 60.91700000 62.25500000 48.27600000
C 59.45900000 60.43300000 48.63200000
O 58.37400000 59.78000000 49.38400000
C 59.03600000 61.15200000 47.34900000
O 57.99400000 62.07600000 47.56500000
C 60.28300000 61.98300000 47.02600000
N 61.17600000 61.17400000 46.17800000
C 62.22000000 60.37400000 46.56700000
N 62.76600000 59.70200000 45.58500000
C 62.05100000 60.12200000 44.46600000
C 62.15200000 59.78300000 43.11900000
N 63.08200000 58.96300000 42.65700000
N 61.26100000 60.32600000 42.26200000
C 60.34600000 61.17800000 42.74500000
N 60.16900000 61.60000000 43.99100000
C 61.07000000 61.01800000 44.81500000
P 58.06800000 58.18600000 49.15200000
O 57.10400000 57.68200000 50.15500000
O 59.32800000 57.42300000 48.94100000
O 57.30200000 58.16900000 47.76600000
C 56.29700000 59.12100000 47.51800000
C 55.98800000 59.17000000 46.06000000
O 57.11300000 59.75700000 45.35800000
C 55.71100000 57.86800000 45.31600000
O 54.36600000 57.37000000 45.50900000
C 55.92000000 58.32200000 43.88600000
O 54.77600000 59.08400000 43.49100000
C 57.14200000 59.26200000 44.03200000
N 58.37300000 58.48900000 43.87500000
C 59.24500000 58.08600000 44.86100000
N 60.18900000 57.30500000 44.42000000
C 59.94200000 57.21300000 43.05000000
C 60.64700000 56.50900000 42.00900000
O 61.69000000 55.77600000 42.10100000
N 60.04000000 56.71000000 40.76600000
C 58.92000000 57.48200000 40.55000000
N 58.46000000 57.53400000 39.29000000
N 58.28800000 58.15200000 41.49800000
C 58.83800000 57.96500000 42.70300000
P 54.07400000 55.78200000 45.41000000
O 52.70100000 55.47400000 45.86200000
O 55.21400000 55.03300000 46.00800000
O 54.17300000 55.46900000 43.86300000
C 53.33900000 56.14300000 42.94000000
C 53.67100000 55.67700000 41.54200000
O 55.03700000 56.05800000 41.20600000
C 53.66600000 54.17100000 41.35400000
O 52.32600000 53.68000000 41.15500000
C 54.53500000 54.01700000 40.11200000
O 53.77300000 54.35800000 38.98000000
C 55.59500000 55.11700000 40.31100000
N 56.83800000 54.61800000 40.90200000
C 57.21600000 54.72200000 42.21600000
N 58.36500000 54.14100000 42.48800000
C 58.78400000 53.63900000 41.26000000
C 59.94300000 52.89800000 40.87700000
N 60.92400000 52.56600000 41.72800000
N 60.04200000 52.51100000 39.59600000
C 59.05600000 52.85000000 38.75200000
N 57.92200000 53.55200000 38.98600000
C 57.85000000 53.91600000 40.27600000
P 51.95000000 52.18000000 41.62000000
O 50.47200000 52.01700000 41.46600000
O 52.56900000 51.90400000 42.93800000
O 52.64400000 51.25200000 40.55300000
C 52.27600000 51.32100000 39.16700000
C 53.31900000 50.64500000 38.32000000
O 54.60100000 51.35300000 38.44600000
C 53.63600000 49.20800000 38.72500000
O 52.69000000 48.29100000 38.16300000
C 55.05300000 49.02400000 38.15700000
O 55.03900000 48.81900000 36.75900000
C 55.66900000 50.41700000 38.39100000
N 56.44100000 50.43200000 39.64300000
C 56.12900000 50.86600000 40.89300000
N 57.06200000 50.61800000 41.78800000
C 58.07700000 50.01500000 41.06000000
C 59.34800000 49.48100000 41.43500000
N 59.86400000 49.51500000 42.67700000
N 60.07600000 48.89500000 40.48300000
C 59.57700000 48.84200000 39.23000000
N 58.41500000 49.31300000 38.75800000
C 57.71200000 49.89400000 39.74300000
P 52.37100000 46.89400000 38.91700000
O 51.17600000 46.25600000 38.30000000
O 52.39900000 47.12700000 40.38100000
O 53.62500000 45.98600000 38.52900000
C 53.88900000 45.70900000 37.15000000
C 55.16800000 44.94000000 37.01200000
O 56.29600000 45.79200000 37.35100000
C 55.31500000 43.75800000 37.95500000
O 54.65300000 42.59800000 37.49000000
C 56.82500000 43.57300000 37.99600000
O 57.25500000 43.01200000 36.77600000
C 57.28600000 45.02800000 38.01800000
N 57.45100000 45.54300000 39.38500000
C 58.63600000 45.21200000 40.01500000
O 59.47000000 44.48500000 39.49000000
N 58.80400000 45.74700000 41.26100000
C 57.92400000 46.56400000 41.93900000
O 58.17500000 46.85700000 43.09700000
C 56.69300000 46.84600000 41.24100000
C 56.50200000 46.32600000 40.01300000
P 54.15100000 41.54200000 38.55900000
O 53.48500000 40.46300000 37.78100000
O 53.44100000 42.27200000 39.59100000
O 55.40900000 40.90100000 39.29100000
C 56.36400000 40.11700000 38.55800000
C 57.58200000 39.88000000 39.40000000
O 58.24100000 41.15000000 39.73100000
C 57.30000000 39.24700000 40.74600000
O 57.09200000 37.83200000 40.62500000
C 58.55300000 39.63000000 41.53300000
O 59.64500000 38.79400000 41.15600000
C 58.79600000 41.05000000 41.01900000
N 58.18600000 42.08200000 41.87600000
C 58.87100000 42.41000000 43.05200000
O 59.94700000 41.89900000 43.37300000
N 58.26100000 43.33400000 43.83600000
C 57.07100000 43.98500000 43.60300000
O 56.66500000 44.80800000 44.43200000
C 56.41900000 43.62700000 42.35500000
C 56.99100000 42.70200000 41.54900000
P 56.23200000 37.06500000 41.72600000
O 55.79200000 35.75700000 41.05600000
O 55.23300000 37.97600000 42.33800000
O 57.23300000 36.69300000 42.90200000
C 58.37100000 35.81700000 42.66300000
C 59.34800000 35.92500000 43.80500000
O 59.92300000 37.26000000 43.90900000
C 58.74300000 35.70200000 45.17200000
O 58.57500000 34.32900000 45.40800000
C 59.76500000 36.35500000 46.08700000
O 60.87900000 35.48600000 46.16600000
C 60.16300000 37.59100000 45.26700000
N 59.36000000 38.78000000 45.59700000
C 59.80500000 39.67600000 46.61700000
O 60.87900000 39.45100000 47.19400000
N 59.04700000 40.76700000 46.93500000
C 57.90100000 40.98200000 46.28500000
N 57.16900000 42.03800000 46.65300000
C 57.44500000 40.10900000 45.22900000
C 58.18700000 39.02600000 44.93400000
P 57.51400000 33.85600000 46.50900000
O 57.67400000 32.36700000 46.52400000
O 56.20300000 34.48500000 46.25400000
O 58.08500000 34.41600000 47.88400000
C 59.16400000 33.70300000 48.50500000
C 59.68800000 34.43400000 49.70100000
O 60.12500000 35.75700000 49.30500000
C 58.71600000 34.69300000 50.83900000
O 58.51400000 33.58000000 51.69900000
C 59.39200000 35.84500000 51.55900000
O 60.45500000 35.37000000 52.37500000
C 59.91500000 36.66100000 50.37400000
N 58.89700000 37.62000000 49.94600000
C 58.00400000 37.48800000 48.89700000
N 57.20700000 38.51900000 48.76900000
C 57.59700000 39.38300000 49.78800000
C 57.11400000 40.66600000 50.14800000
O 56.18400000 41.31500000 49.65300000
N 57.82700000 41.19600000 51.22300000
C 58.84400000 40.56600000 51.88400000
N 59.39900000 41.25100000 52.88500000
N 59.29100000 39.36000000 51.58500000
C 58.63600000 38.83500000 50.52600000
P 57.09400000 33.40200000 52.42600000
O 57.17700000 32.13200000 53.18700000
O 56.01100000 33.58800000 51.42700000
O 57.01700000 34.59900000 53.46900000
C 57.81700000 34.56300000 54.66000000
C 57.65300000 35.83400000 55.45000000
O 57.96400000 36.95300000 54.58200000
C 56.26100000 36.15500000 55.97900000
O 55.93200000 35.50200000 57.20900000
C 56.30200000 37.67100000 56.13900000
O 56.87200000 38.14600000 57.33800000
C 57.18400000 38.08200000 54.96300000
N 56.34300000 38.50200000 53.82900000
C 55.79600000 39.80100000 53.83800000
O 56.06300000 40.56800000 54.79100000
N 54.99300000 40.18000000 52.81500000
C 54.73400000 39.33100000 51.81800000
N 53.93500000 39.74900000 50.83200000
C 55.28300000 38.01500000 51.78000000
C 56.07700000 37.64700000 52.79200000
P 54.38300000 35.17800000 57.55000000
O 54.33300000 34.48300000 58.87200000
O 53.78500000 34.51700000 56.35500000
O 53.73900000 36.61700000 57.76600000
C 54.20400000 37.44300000 58.84900000
C 53.50800000 38.77200000 58.83700000
O 53.91200000 39.51400000 57.65400000
C 51.98700000 38.72700000 58.75000000
O 51.33200000 38.49200000 59.99900000
C 51.66700000 40.10100000 58.17800000
O 51.70400000 41.12700000 59.14100000
C 52.82300000 40.30400000 57.19600000
N 52.43400000 39.85300000 55.85600000
C 52.79200000 38.69500000 55.20600000
N 52.25600000 38.57100000 54.01600000
C 51.49300000 39.72900000 53.86900000
C 50.68300000 40.20300000 52.81200000
N 50.51600000 39.54100000 51.65400000
N 50.05200000 41.38800000 52.97900000
C 50.23300000 42.05200000 54.13600000
N 50.97500000 41.71300000 55.19800000
C 51.58900000 40.52500000 54.99300000
P 49.93400000 37.68000000 60.03000000
O 49.48500000 37.58000000 61.44600000
O 50.09000000 36.44100000 59.22200000
O 48.91400000 38.63600000 59.27500000
C 48.52900000 39.89800000 59.84300000
C 47.46300000 40.54100000 58.98500000
O 48.03000000 40.87900000 57.69000000
C 46.29100000 39.62700000 58.66000000
O 45.29200000 39.64000000 59.66900000
C 45.77800000 40.18700000 57.34000000
O 44.93200000 41.30200000 57.54700000
C 47.08000000 40.62100000 56.66200000
N 47.63100000 39.58800000 55.74800000
C 47.20400000 39.55700000 54.40000000
O 46.39900000 40.40400000 54.00200000
N 47.69400000 38.60600000 53.57100000
C 48.58800000 37.72300000 54.02400000
N 49.05500000 36.81300000 53.16700000
C 49.04600000 37.73400000 55.37600000
C 48.54300000 38.67100000 56.19600000
P 44.49200000 38.29500000 59.99400000
O 43.43500000 38.63700000 60.97400000
O 45.47800000 37.22900000 60.30300000
O 43.80200000 37.89000000 58.61800000
C 42.99300000 38.82500000 57.87400000
C 42.56400000 38.19400000 56.56800000
O 43.66700000 38.14900000 55.63000000
C 42.13600000 36.74700000 56.73300000
O 40.77800000 36.69500000 57.10400000
C 42.40200000 36.13600000 55.36600000
O 41.33700000 36.31700000 54.45900000
C 43.63100000 36.92600000 54.91500000
N 44.88300000 36.20100000 55.17000000
C 45.36500000 35.32700000 54.19300000
O 44.71900000 35.16900000 53.14900000
N 46.51200000 34.67300000 54.40600000
C 47.17600000 34.84600000 55.54300000
N 48.31100000 34.16100000 55.70500000
C 46.70900000 35.71900000 56.56300000
C 45.57000000 36.37300000 56.33700000
P 40.33400000 35.77000000 58.33000000
O 41.26700000 36.02000000 59.48100000
O 40.22600000 34.40500000 57.75800000
O 38.87200000 36.30400000 58.69700000
C 38.66600000 37.59600000 59.32300000
C 37.60700000 38.37900000 58.56900000
O 36.47900000 37.50000000 58.27800000
C 37.02500000 39.58500000 59.30500000
O 36.42800000 40.40000000 58.27400000
C 35.78500000 38.99100000 59.98100000
O 34.78000000 39.94500000 60.28300000
C 35.31400000 37.95900000 58.95000000
N 34.59800000 36.78500000 59.48800000
C 34.39900000 35.58600000 58.82900000
N 33.71500000 34.70100000 59.52200000
C 33.44000000 35.35200000 60.71900000
C 32.73900000 34.94800000 61.88100000
N 32.16100000 33.74700000 62.02400000
N 32.65200000 35.83500000 62.90200000
C 33.23000000 37.04200000 62.75800000
N 33.91100000 37.53800000 61.72000000
C 33.98200000 36.63700000 60.71900000
