15
candidate D (rigidly rotated), angstrom
C 2.46635032 2.58392259 -1.01071590
C 2.08979830 2.27626847 0.39797960
C 1.86573271 3.20322602 1.34048979
S 1.46968631 2.72637557 3.04507793
O 1.46418708 1.26796527 3.12664293
O 2.28243475 3.52146224 3.96117692
C -0.27555565 3.31410271 3.19166194
H 1.74198175 2.15149303 -1.70220361
H 3.43450906 2.14163981 -1.24931293
H 2.52166137 3.65454676 -1.19098815
H 2.00060065 1.22241948 0.66591947
H 1.96514374 4.26513259 1.12188718
H -0.91585355 2.80832296 2.47397128
H -0.33606600 4.38689437 3.02850777
H -0.63671580 3.09642156 4.19427505
