15
candidate C (rigidly rotated), angstrom
C 0.66975374 -0.18100526 -3.40720248
C 1.23122845 0.59505418 -2.25985968
C 1.37357700 0.16663899 -0.99518303
S 0.95921492 -1.49627831 -0.38937451
O 1.74867929 -1.73573588 0.81436718
O 0.97942378 -2.45715735 -1.49033774
C -0.80149693 -1.26614121 0.12581792
H 0.72027771 0.39867937 -4.32484185
H 1.21171704 -1.11340489 -3.55642684
H -0.37422346 -0.44412094 -3.23363767
H 1.55740283 1.61343364 -2.47931685
H 1.80829221 0.83093308 -0.25078184
H -0.87982502 -0.50654633 0.89905278
H -1.41776414 -0.97654314 -0.72116402
H -1.17767979 -2.20609687 0.52343783
