15
candidate A (rigidly rotated), angstrom
C 1.31811837 -2.31180788 3.04128909
C 0.72036660 -1.31113350 3.96951534
C -0.22547705 -0.39573200 3.70475802
S -1.08431846 -0.13215666 2.12308566
O -1.06717981 -1.34681671 1.31030075
O -2.34650002 0.53552271 2.42317498
C 0.02829559 1.10147789 1.31131615
H 1.19649473 -3.31435559 3.45280812
H 2.39245932 -2.14021892 2.95157546
H 0.87398030 -2.28779130 2.05146789
H 1.11009124 -1.33851593 4.99022129
H -0.56013957 0.26137538 4.50565509
H 1.01666360 0.68158363 1.14548772
H 0.11986415 1.99723621 1.91962845
H -0.39751843 1.37812686 0.34941943
