15
candidate B (rigidly rotated), angstrom
C 0.18771466 -2.81645005 -4.69730531
C -0.87138206 -2.44526542 -3.70183772
C -2.02484330 -1.84378620 -4.01271176
S -0.50801643 -2.80239139 -1.93917596
O 0.90540393 -2.52518523 -1.69118627
O -1.54622885 -2.19097804 -1.11356907
C -0.74015493 -4.63586218 -1.87934602
H -0.09357798 -2.50366506 -5.70003796
H 0.35629093 -3.89469126 -4.70789062
H 1.13552044 -2.34587246 -4.43700754
H -2.26583634 -1.59173876 -5.04013723
H -2.74044361 -1.57987555 -3.24151272
H -0.05683065 -5.13455349 -2.56169293
H -1.76099767 -4.90536319 -2.13653971
H -0.53316139 -4.98142595 -0.86900583
