15
S0 starting structure, angstrom
C -1.08922200 2.08036200 -0.98917600
C 0.38108100 1.84437000 -0.86097900
C 0.97634900 0.77963800 -0.29954200
S 0.12028700 -0.61499200 0.49176000
O 1.05422300 -1.23020000 1.42924100
O -1.21153800 -0.20766900 0.93464500
C -0.08932100 -1.76954900 -0.93707000
H -1.28515700 3.04814100 -1.44267600
H -1.58084100 2.04706600 -0.01831900
H -1.55963600 1.31738100 -1.61031500
H 1.03196500 2.62100500 -1.26697900
H 2.06293700 0.73261000 -0.26065800
H 0.87609800 -2.04982000 -1.34989700
H -0.69136700 -1.31310100 -1.71824000
H -0.59337800 -2.66937300 -0.59156300
