13
candidate B, angstrom
C -1.55594700 1.25943200 1.42557900
C -2.00216900 0.46121200 0.45665000
C -1.17883700 -0.31665700 -0.53532000
S 0.65671700 -0.19741500 -0.39495400
O 1.22505700 -1.19691900 -1.28902500
O 1.07053600 1.18160000 -0.45662500
O 0.88685200 -0.71063400 1.12614000
H -2.25773900 1.77118600 2.07274000
H -0.50212100 1.43416200 1.60076900
H -3.07750200 0.33240900 0.32684800
H -1.43753700 0.00723700 -1.55121800
H -1.45458700 -1.37729900 -0.49013300
H 1.18418000 -1.62533500 1.23489500
