13
candidate A, angstrom
C -2.33377400 1.63674400 0.46468300
C -1.79626900 0.42311400 0.59895800
C -1.07330200 -0.29775400 -0.49860800
S 0.74282900 -0.46335100 -0.14351500
O 0.91357300 -0.92742900 1.22393700
O 1.36494300 -1.13894300 -1.25421300
O 1.19612400 1.08697300 -0.21985900
H -2.84974100 2.11133800 1.28958800
H -2.28594800 2.17693500 -0.47356400
H -1.86219700 -0.09921700 1.55191000
H -1.19404900 0.21378100 -1.45654600
H -1.46673200 -1.31339700 -0.61329600
H 1.19634500 1.58675000 0.60903200
