13
candidate D, angstrom
C -1.56522100 1.19618500 1.57946300
C -2.01302300 0.39246600 0.61574600
C -1.18496700 -0.35407200 -0.39583800
S 0.63863300 -0.16776900 -0.21469700
O 1.04315700 1.18857900 -0.55369000
O 1.06847400 -0.79126700 1.01306300
O 1.08430100 -1.13144000 -1.44933100
H -2.26167200 1.68360700 2.25065000
H -0.51147100 1.39429500 1.73294500
H -3.08655800 0.23228800 0.51017500
H -1.46812200 -0.03485500 -1.40650100
H -1.42061400 -1.42359900 -0.34222000
H 1.54212400 -0.70187300 -2.18645700
