13
candidate C, angstrom
C -2.63575600 1.34387000 0.24787300
C -1.83000100 0.32456400 0.54760900
C -1.01198900 -0.41940500 -0.46654100
S 0.81054700 -0.18663600 -0.21635600
O 1.51444100 -1.14804600 -1.05427400
O 1.12757200 1.21721000 -0.25709700
O 0.94441200 -0.68432100 1.32332700
H -3.20448900 1.84891600 1.01821100
H -2.74491600 1.69965700 -0.76976900
H -1.73244800 -0.00855800 1.57968800
H -1.24791400 -0.08341300 -1.47959500
H -1.21988400 -1.49421400 -0.42037700
H 1.35597400 -1.54913100 1.46424600
