13
S0 starting conformer, angstrom
C -2.59984500 0.02119800 1.46826400
C -1.84393700 0.56537500 0.51401500
C -1.04212700 -0.23176300 -0.47395700
S 0.77349600 -0.01247000 -0.17616000
O 1.13067900 1.37924400 -0.40616200
O 1.14030500 -0.69421300 1.03851300
O 1.34520000 -0.88256300 -1.42597300
H -3.15740000 0.64240400 2.15775900
H -2.67880300 -1.05334800 1.58530100
H -1.77503500 1.64820400 0.42154000
H -1.26080800 0.09622200 -1.49608500
H -1.27886100 -1.29628700 -0.40489200
H 1.76095200 -0.38627100 -2.14602100
