15
candidate D, angstrom
C -2.25710800 1.55965600 -0.54728400
N -0.83680500 1.53159200 -0.25435100
C -0.14450800 0.36852200 -0.04668500
S -0.93861400 -1.12732300 -0.14738100
N 1.19051700 0.55578400 0.23705100
C 2.21848300 -0.36685000 0.49696300
C 2.15581800 -1.70644200 0.51453000
H -2.55975300 2.59091500 -0.72958000
H -2.84603600 1.16051700 0.28759200
H -2.48696300 0.95922100 -1.43390200
H -0.35466800 2.42292100 -0.17343500
H 1.49476200 1.52720300 0.26860100
H 3.16362800 0.14116600 0.70166800
H 1.23818300 -2.24323600 0.31634100
H 3.05657100 -2.26248200 0.73676900
