15
candidate B, angstrom
C -2.36363000 1.13644600 -0.14057800
N -0.93286800 0.95234900 -0.29542000
C -0.29705900 -0.17174400 0.12534000
S -1.13355600 -1.46516000 0.84683700
N 1.06478900 -0.27618700 -0.03893800
C 1.93867000 0.64810500 -0.60582700
C 3.26377200 0.43603500 -0.71545900
H -2.66388400 2.04350100 -0.66544200
H -2.64519400 1.23113400 0.91562400
H -2.90989800 0.28418700 -0.55571200
H -0.40132900 1.72285900 -0.68912700
H 1.47597100 -1.14416200 0.29739100
H 1.49225400 1.57410100 -0.96745000
H 3.71671000 -0.47998800 -0.36054700
H 3.89829900 1.18473300 -1.16448600
