15
candidate A, angstrom
C -1.10447900 2.00515000 -0.41142900
N -1.23453800 0.57921200 -0.64515000
C -0.48257200 -0.43256400 -0.12652500
S -1.11044500 -2.01716700 -0.13675500
N 0.76139600 -0.22824100 0.41289900
C 1.63771700 0.84311600 0.23765800
C 2.83666400 0.90646600 0.84694600
H -2.10129600 2.45053200 -0.40113900
H -0.52648000 2.51423300 -1.19735800
H -0.62941500 2.20767300 0.55170900
H -2.12938400 0.27478300 -1.01993600
H 1.15399000 -1.04495800 0.87773700
H 1.32343300 1.61607600 -0.45907800
H 3.16405000 0.13064400 1.52638900
H 3.50022800 1.73588600 0.65560900
