15
candidate C, angstrom
C -0.66173500 1.96270100 -0.63421000
N -1.08597200 0.60960600 -0.33174800
C -0.38124200 -0.31847800 0.37058900
S -1.19980000 -1.59861900 1.13701000
N 0.98428600 -0.20719000 0.52901200
C 1.93752700 0.29122600 -0.37061600
C 1.76686000 0.49024500 -1.68985300
H -1.50579900 2.64129800 -0.48956000
H -0.31389300 2.07722200 -1.67119500
H 0.14926000 2.26988800 0.02881000
H -2.08608000 0.43237300 -0.38105800
H 1.36097400 -0.80010100 1.26665700
H 2.91189800 0.46585900 0.09126000
H 0.83828800 0.25208300 -2.18907100
H 2.58550000 0.86820000 -2.28431000
