15
S0 starting conformer, angstrom
C -0.77705200 2.51213300 -0.44065100
N -1.29744900 1.16597300 -0.32917400
C -0.56481300 0.04038100 -0.08191900
S -1.35356400 -1.46316200 0.00993200
N 0.78720100 0.18713800 0.08078300
C 1.67513800 -0.85733300 0.34191600
C 2.99686100 -0.66714100 0.49704700
H -1.60253200 3.18961700 -0.65161300
H -0.04328800 2.60564100 -1.25369400
H -0.29054500 2.84695500 0.48663800
H -2.29698200 1.03246000 -0.44407600
H 1.18736500 1.12063200 0.01008000
H 1.20736600 -1.83817700 0.40989900
H 3.43996700 0.31819200 0.42513700
H 3.64660300 -1.50474300 0.69909900
