13
X (rigidly rotated and translated), angstrom
C -0.08530786 -1.65099983 -3.12429932
N 0.40699737 -0.55546874 -2.29440744
C 1.45536095 0.10077023 -2.69795300
S 2.17162702 1.46406304 -1.79311479
C 3.42733920 1.66994253 -3.03616923
C 3.27547128 0.76058396 -4.02981716
N 2.20081380 -0.10565901 -3.85743146
H -1.00315361 -2.05954659 -2.69360604
H 0.64397905 -2.47341859 -3.19715044
H -0.31252553 -1.32755882 -4.15312907
H 4.19116195 2.43055280 -2.96993298
H 3.89893046 0.65724190 -4.91258514
H 1.96724149 -0.83558898 -4.52085927
