13
X (rigidly rotated and translated), angstrom
C -0.94653459 1.39620317 -0.21050195
N -1.00257047 0.15840775 -0.97636245
C -1.17957713 -0.95033858 -0.32305296
S -1.37226212 -1.18182568 1.46341028
C -1.53473315 -2.93877434 1.23448804
C -1.44538535 -3.27008566 -0.07774284
N -1.25158900 -2.19281326 -0.93245173
H -0.79320745 2.24830414 -0.87806402
H -0.12395296 1.38374536 0.52088462
H -1.87704481 1.56722475 0.35219206
H -1.68426065 -3.61759682 2.06116044
H -1.51041049 -4.26881977 -0.49831512
H -1.16783692 -2.29072447 -1.93809997
