13
X (rigidly rotated and translated), angstrom
C -1.47530352 -3.66346094 -0.04792565
N -1.79464148 -2.25045679 -0.21839221
C -0.92141451 -1.47194824 -0.77017831
C 0.41150972 -1.75619061 -1.31392762
C 1.06899928 -0.68406365 -1.82885304
N 0.51883930 0.57369778 -1.66402926
S -1.29982242 0.28491498 -0.97232913
H -2.29963770 -4.17440220 0.45884701
H -0.56737855 -3.80907784 0.55361749
H -1.31423019 -4.16279302 -1.01352724
H 0.82289181 -2.75888156 -1.31761838
H 2.05016950 -0.73070785 -2.30577054
H 0.53319986 1.20969220 -2.46426156
