2296
Model zinc-blende CdSe nanocrystal CdSe-QD-E (spherical cut, no ligands), angstrom
Cd 3.0285 1.3394 -24.3202
Cd -2.9697 2.2998 -24.0642
Cd -1.0383 -4.8917 -24.0298
Cd 3.7308 5.3892 -23.0597
Cd 5.6622 -1.8023 -23.0252
Cd -2.2674 6.3497 -22.8038
Cd -0.3360 -0.8419 -22.7693
Cd 1.5954 -8.0334 -22.7348
Cd -6.3342 0.1186 -22.5133
Cd -4.4028 -7.0730 -22.4789
Cd 4.4330 9.4391 -21.7992
Cd 6.3644 2.2475 -21.7648
Cd 8.2959 -4.9440 -21.7303
Cd -1.5652 10.3995 -21.5433
Cd 0.3662 3.2080 -21.5088
Cd 2.2977 -3.9836 -21.4744
Cd 4.2291 -11.1751 -21.4399
Cd -5.6320 4.1684 -21.2529
Cd -3.7005 -3.0231 -21.2184
Cd -1.7691 -10.2146 -21.1840
Cd -11.6302 5.1289 -20.9969
Cd -9.6988 -2.0627 -20.9625
Cd -7.7673 -9.2542 -20.9280
Cd 7.0667 6.2974 -20.5043
Cd 8.9981 -0.8941 -20.4698
Cd 10.9295 -8.0857 -20.4354
Cd -0.8629 14.4493 -20.2828
Cd 1.0685 7.2578 -20.2483
Cd 2.9999 0.0663 -20.2139
Cd 4.9313 -7.1252 -20.1794
Cd -4.9297 8.2183 -19.9924
Cd -2.9983 1.0267 -19.9579
Cd -1.0669 -6.1648 -19.9235
Cd 0.8645 -13.3563 -19.8890
Cd -10.9279 9.1787 -19.7364
Cd -8.9965 1.9872 -19.7020
Cd -7.0651 -5.2044 -19.6675
Cd -5.1337 -12.3959 -19.6331
Cd -14.9947 2.9476 -19.4460
Cd -13.0633 -4.2439 -19.4116
Cd 7.7690 10.3472 -19.2438
Cd 9.7004 3.1557 -19.2093
Cd 11.6318 -4.0358 -19.1749
Cd 1.7707 11.3077 -18.9879
Cd 3.7022 4.1161 -18.9534
Cd 5.6336 -3.0754 -18.9189
Cd 7.5650 -10.2669 -18.8845
Cd -4.2275 12.2681 -18.7319
Cd -2.2960 5.0766 -18.6975
Cd -0.3646 -2.1149 -18.6630
Cd 1.5668 -9.3065 -18.6285
Cd -10.2257 13.2285 -18.4760
Cd -8.2942 6.0370 -18.4415
Cd -6.3628 -1.1545 -18.4071
Cd -4.4314 -8.3460 -18.3726
Cd -2.5000 -15.5376 -18.3381
Cd -14.2925 6.9975 -18.1856
Cd -12.3610 -0.1941 -18.1511
Cd -10.4296 -7.3856 -18.1167
Cd -8.4982 -14.5771 -18.0822
Cd 8.4712 14.3971 -17.9833
Cd 10.4026 7.2055 -17.9489
Cd 12.3340 0.0140 -17.9144
Cd 14.2654 -7.1775 -17.8800
Cd 2.4730 15.3575 -17.7274
Cd 4.4044 8.1660 -17.6929
Cd 6.3358 0.9745 -17.6585
Cd 8.2672 -6.2171 -17.6240
Cd 10.1986 -13.4086 -17.5896
Cd -3.5252 16.3180 -17.4714
Cd -1.5938 9.1264 -17.4370
Cd 0.3376 1.9349 -17.4025
Cd 2.2690 -5.2566 -17.3681
Cd 4.2004 -12.4482 -17.3336
Cd -7.5920 10.0869 -17.1810
Cd -5.6606 2.8953 -17.1466
Cd -3.7292 -4.2962 -17.1121
Cd -1.7978 -11.4877 -17.0777
Cd -13.5902 11.0473 -16.9251
Cd -11.6588 3.8558 -16.8906
Cd -9.7274 -3.3358 -16.8562
Cd -7.7960 -10.5273 -16.8217
Cd 11.1049 11.2554 -16.6884
Cd 13.0363 4.0639 -16.6539
Cd -17.6570 4.8162 -16.6347
Cd 14.9677 -3.1277 -16.6195
Cd -15.7256 -2.3753 -16.6002
Cd -13.7942 -9.5668 -16.5658
Cd 5.1067 12.2158 -16.4324
Cd 7.0381 5.0243 -16.3980
Cd 8.9695 -2.1672 -16.3635
Cd 10.9009 -9.3588 -16.3291
Cd -0.8915 13.1763 -16.1765
Cd 1.0399 5.9847 -16.1420
Cd 2.9713 -1.2068 -16.1076
Cd 4.9027 -8.3983 -16.0731
Cd 6.8341 -15.5898 -16.0387
Cd -6.8897 14.1367 -15.9206
Cd -4.9583 6.9452 -15.8861
Cd -3.0269 -0.2463 -15.8516
Cd -1.0955 -7.4379 -15.8172
Cd 0.8359 -14.6294 -15.7827
Cd -10.9565 7.9056 -15.6302
Cd -9.0251 0.7141 -15.5957
Cd -7.0937 -6.4774 -15.5612
Cd -5.1623 -13.6690 -15.5268
Cd 11.8071 15.3052 -15.4279
Cd 13.7385 8.1137 -15.3935
Cd -16.9547 8.8661 -15.3742
Cd 15.6699 0.9222 -15.3590
Cd -15.0233 1.6745 -15.3398
Cd 17.6013 -6.2694 -15.3245
Cd -13.0919 -5.5170 -15.3053
Cd -11.1605 -12.7085 -15.2708
Cd 5.8089 16.2657 -15.1720
Cd 7.7403 9.0741 -15.1375
Cd 9.6717 1.8826 -15.1031
Cd 11.6031 -5.3089 -15.0686
Cd -19.0901 -4.5566 -15.0494
Cd 13.5345 -12.5004 -15.0341
Cd -0.1893 17.2261 -14.9160
Cd 1.7421 10.0346 -14.8816
Cd 3.6735 2.8431 -14.8471
Cd 5.6049 -4.3485 -14.8127
Cd 7.5363 -11.5400 -14.7782
Cd -6.1875 18.1866 -14.6601
Cd -4.2561 10.9950 -14.6256
Cd -2.3247 3.8035 -14.5912
Cd -0.3933 -3.3880 -14.5567
Cd 1.5381 -10.5796 -14.5223
Cd 3.4695 -17.7711 -14.4878
Cd -10.2543 11.9555 -14.3697
Cd -8.3229 4.7639 -14.3352
Cd -6.3915 -2.4276 -14.3008
Cd -4.4601 -9.6191 -14.2663
Cd -2.5287 -16.8106 -14.2319
Cd 14.4408 12.1635 -14.1330
Cd 16.3722 4.9720 -14.0985
Cd -14.3211 5.7244 -14.0793
Cd 18.3036 -2.2195 -14.0641
Cd -12.3897 -1.4672 -14.0448
Cd -10.4583 -8.6587 -14.0104
Cd -8.5269 -15.8502 -13.9759
Cd 8.4426 13.1240 -13.8770
Cd 10.3740 5.9325 -13.8426
Cd 12.3054 -1.2591 -13.8081
Cd -18.3879 -0.5067 -13.7889
Cd 14.2368 -8.4506 -13.7737
Cd -16.4565 -7.6982 -13.7544
Cd -14.5251 -14.8898 -13.7200
Cd 2.4444 14.0844 -13.6211
Cd 4.3758 6.8929 -13.5866
Cd 6.3072 -0.2986 -13.5522
Cd 8.2386 -7.4902 -13.5177
Cd 10.1700 -14.6817 -13.4833
Cd -3.5538 15.0449 -13.3651
Cd -1.6224 7.8533 -13.3307
Cd 0.3090 0.6618 -13.2962
Cd 2.2404 -6.5297 -13.2618
Cd 4.1718 -13.7212 -13.2273
Cd -9.5520 16.0053 -13.1092
Cd -7.6206 8.8138 -13.0747
Cd -5.6892 1.6223 -13.0403
Cd -3.7578 -5.5693 -13.0058
Cd -1.8264 -12.7608 -12.9714
Cd 0.1050 -19.9523 -12.9369
Cd 17.0744 9.0219 -12.8380
Cd -13.6188 9.7742 -12.8188
Cd 19.0058 1.8303 -12.8036
Cd -11.6874 2.5827 -12.7843
Cd -9.7560 -4.6088 -12.7499
Cd -7.8246 -11.8004 -12.7154
Cd -5.8932 -18.9919 -12.6810
Cd 9.1448 17.1738 -12.6166
Cd 11.0762 9.9823 -12.5821
Cd 13.0076 2.7908 -12.5476
Cd -17.6856 3.5431 -12.5284
Cd 14.9390 -4.4008 -12.5132
Cd -15.7542 -3.6484 -12.4939
Cd 16.8705 -11.5923 -12.4787
Cd -13.8228 -10.8399 -12.4595
Cd -11.8914 -18.0314 -12.4250
Cd 3.1466 18.1343 -12.3606
Cd 5.0780 10.9427 -12.3262
Cd 7.0094 3.7512 -12.2917
Cd 8.9408 -3.4403 -12.2572
Cd 10.8723 -10.6318 -12.2228
Cd -2.8516 19.0947 -12.1047
Cd -0.9202 11.9032 -12.0702
Cd 1.0112 4.7117 -12.0358
Cd 2.9426 -2.4799 -12.0013
Cd 4.8741 -9.6714 -11.9668
Cd 6.8055 -16.8629 -11.9324
Cd -8.8498 20.0552 -11.8487
Cd -6.9184 12.8636 -11.8143
Cd -4.9870 5.6721 -11.7798
Cd -3.0556 -1.5194 -11.7454
Cd -1.1242 -8.7110 -11.7109
Cd 0.8073 -15.9025 -11.6764
Cd 17.7767 13.0717 -11.5776
Cd -12.9166 13.8241 -11.5583
Cd 19.7081 5.8802 -11.5431
Cd -10.9852 6.6325 -11.5239
Cd 21.6395 -1.3114 -11.5086
Cd -9.0538 -0.5590 -11.4894
Cd -7.1224 -7.7505 -11.4550
Cd -5.1909 -14.9420 -11.4205
Cd 11.7785 14.0321 -11.3216
Cd 13.7099 6.8406 -11.2872
Cd -16.9834 7.5930 -11.2679
Cd 15.6413 -0.3509 -11.2527
Cd -15.0520 0.4015 -11.2335
Cd 17.5727 -7.5424 -11.2182
Cd -13.1206 -6.7901 -11.1990
Cd -11.1892 -13.9816 -11.1646
Cd 5.7803 14.9926 -11.0657
Cd 7.7117 7.8011 -11.0312
Cd 9.6431 0.6095 -10.9968
Cd -21.0502 1.3619 -10.9775
Cd 11.5745 -6.5820 -10.9623
Cd -19.1188 -5.8296 -10.9431
Cd 13.5059 -13.7735 -10.9278
Cd -17.1874 -13.0212 -10.9086
Cd -0.2179 15.9530 -10.8097
Cd 1.7135 8.7615 -10.7753
Cd 3.6449 1.5700 -10.7408
Cd 5.5763 -5.6216 -10.7064
Cd 7.5077 -12.8131 -10.6719
Cd 9.4391 -20.0046 -10.6374
Cd -6.2161 16.9135 -10.5538
Cd -4.2847 9.7219 -10.5193
Cd -2.3533 2.5304 -10.4849
Cd -0.4219 -4.6611 -10.4504
Cd 1.5095 -11.8526 -10.4160
Cd 3.4409 -19.0442 -10.3815
Cd -12.2143 17.8739 -10.2978
Cd 20.4103 9.9300 -10.2826
Cd -10.2829 10.6824 -10.2634
Cd 22.3418 2.7385 -10.2482
Cd -8.3515 3.4909 -10.2289
Cd -6.4201 -3.7007 -10.1945
Cd -4.4887 -10.8922 -10.1600
Cd -2.5573 -18.0837 -10.1256
Cd 12.4807 18.0820 -10.0611
Cd 14.4121 10.8905 -10.0267
Cd -16.2811 11.6428 -10.0074
Cd 16.3436 3.6989 -9.9922
Cd -14.3497 4.4513 -9.9730
Cd 18.2750 -3.4926 -9.9578
Cd -12.4183 -2.7402 -9.9385
Cd 20.2064 -10.6841 -9.9233
Cd -10.4869 -9.9318 -9.9041
Cd -8.5555 -17.1233 -9.8696
Cd 6.4825 19.0424 -9.8052
Cd 8.4139 11.8509 -9.7707
Cd 10.3453 4.6594 -9.7363
Cd -20.3479 5.4117 -9.7170
Cd 12.2768 -2.5322 -9.7018
Cd -18.4165 -1.7798 -9.6826
Cd 14.2082 -9.7237 -9.6674
Cd -16.4851 -8.9713 -9.6481
Cd -14.5537 -16.1628 -9.6137
Cd 0.4843 20.0029 -9.5492
Cd 2.4157 12.8113 -9.5148
Cd 4.3471 5.6198 -9.4803
Cd 6.2786 -1.5717 -9.4459
Cd 8.2100 -8.7632 -9.4114
Cd 10.1414 -15.9548 -9.3770
Cd -5.5139 20.9633 -9.2933
Cd -3.5825 13.7718 -9.2588
Cd -1.6511 6.5803 -9.2244
Cd 0.2804 -0.6113 -9.1899
Cd 2.2118 -7.8028 -9.1555
Cd 4.1432 -14.9943 -9.1210
Cd 6.0746 -22.1859 -9.0866
Cd -9.5807 14.7322 -9.0029
Cd -7.6493 7.5407 -8.9684
Cd -5.7179 0.3492 -8.9340
Cd -3.7864 -6.8424 -8.8995
Cd -1.8550 -14.0339 -8.8651
Cd 0.0764 -21.2254 -8.8306
Cd 15.1144 14.9403 -8.7662
Cd -15.5789 15.6927 -8.7470
Cd 17.0458 7.7488 -8.7317
Cd -13.6475 8.5011 -8.7125
Cd 18.9772 0.5572 -8.6973
Cd -11.7161 1.3096 -8.6780
Cd 20.9086 -6.6343 -8.6628
Cd -9.7846 -5.8819 -8.6436
Cd -7.8532 -13.0734 -8.6091
Cd -5.9218 -20.2650 -8.5747
Cd 9.1162 15.9007 -8.5103
Cd 11.0476 8.7092 -8.4758
Cd -19.6457 9.4616 -8.4566
Cd 12.9790 1.5177 -8.4413
Cd -17.7143 2.2701 -8.4221
Cd 14.9104 -5.6738 -8.4069
Cd -15.7829 -4.9215 -8.3876
Cd 16.8418 -12.8654 -8.3724
Cd -13.8514 -12.1130 -8.3532
Cd -11.9200 -19.3045 -8.3187
Cd 3.1180 16.8612 -8.2543
Cd 5.0494 9.6697 -8.2199
Cd 6.9808 2.4781 -8.1854
Cd 8.9122 -4.7134 -8.1509
Cd -21.7811 -3.9610 -8.1317
Cd 10.8436 -11.9049 -8.1165
Cd -19.8496 -11.1526 -8.0972
Cd 12.7750 -19.0965 -8.0820
Cd -2.8802 17.8216 -7.9984
Cd -0.9488 10.6301 -7.9639
Cd 0.9826 3.4386 -7.9295
Cd 2.9140 -3.7530 -7.8950
Cd 4.8454 -10.9445 -7.8605
Cd 6.7768 -18.1360 -7.8261
Cd -8.8784 18.7821 -7.7424
Cd -6.9470 11.5905 -7.7080
Cd -5.0156 4.3990 -7.6735
Cd -3.0842 -2.7925 -7.6391
Cd -1.1528 -9.9840 -7.6046
Cd 0.7786 -17.1756 -7.5701
Cd 17.7481 11.7986 -7.4713
Cd -12.9452 12.5510 -7.4520
Cd 19.6795 4.6071 -7.4368
Cd -11.0138 5.3595 -7.4176
Cd 21.6109 -2.5844 -7.4024
Cd -9.0824 -1.8321 -7.3831
Cd -7.1510 -9.0236 -7.3487
Cd -5.2196 -16.2151 -7.3142
Cd -3.2882 -23.4067 -7.2797
Cd 9.8184 19.9506 -7.2498
Cd 11.7499 12.7591 -7.2153
Cd -18.9434 13.5114 -7.1961
Cd 13.6813 5.5675 -7.1809
Cd -17.0120 6.3199 -7.1616
Cd 15.6127 -1.6240 -7.1464
Cd -15.0806 -0.8716 -7.1272
Cd 17.5441 -8.8155 -7.1120
Cd -13.1492 -8.0632 -7.0927
Cd -11.2178 -15.2547 -7.0583
Cd 3.8202 20.9110 -6.9938
Cd 5.7516 13.7195 -6.9594
Cd 7.6831 6.5280 -6.9249
Cd 9.6145 -0.6636 -6.8905
Cd -21.0788 0.0888 -6.8712
Cd 11.5459 -7.8551 -6.8560
Cd -19.1474 -7.1027 -6.8368
Cd 13.4773 -15.0466 -6.8216
Cd -17.2160 -14.2942 -6.8023
Cd -2.1780 21.8715 -6.7379
Cd -0.2466 14.6799 -6.7034
Cd 1.6849 7.4884 -6.6690
Cd 3.6163 0.2969 -6.6345
Cd 5.5477 -6.8946 -6.6001
Cd 7.4791 -14.0862 -6.5656
Cd 9.4105 -21.2777 -6.5312
Cd -6.2448 15.6404 -6.4475
Cd -4.3133 8.4489 -6.4130
Cd -2.3819 1.2573 -6.3786
Cd -0.4505 -5.9342 -6.3441
Cd 1.4809 -13.1257 -6.3097
Cd 3.4123 -20.3173 -6.2752
Cd -12.2430 16.6008 -6.1915
Cd 20.3817 8.6569 -6.1763
Cd -10.3116 9.4093 -6.1571
Cd 22.3131 1.4654 -6.1419
Cd -8.3801 2.2178 -6.1226
Cd -6.4487 -4.9738 -6.0882
Cd -4.5173 -12.1653 -6.0537
Cd -2.5859 -19.3568 -6.0193
Cd 12.4521 16.8089 -5.9548
Cd 14.3835 9.6174 -5.9204
Cd -16.3098 10.3697 -5.9011
Cd 16.3149 2.4259 -5.8859
Cd -14.3783 3.1782 -5.8667
Cd 18.2463 -4.7657 -5.8515
Cd -12.4469 -4.0133 -5.8322
Cd 20.1777 -11.9572 -5.8170
Cd -10.5155 -11.2048 -5.7978
Cd -8.5841 -18.3964 -5.7633
Cd 6.4539 17.7693 -5.6989
Cd 8.3853 10.5778 -5.6644
Cd 10.3167 3.3863 -5.6300
Cd -20.3766 4.1387 -5.6107
Cd 12.2481 -3.8052 -5.5955
Cd -18.4451 -3.0529 -5.5763
Cd 14.1795 -10.9968 -5.5611
Cd -16.5137 -10.2444 -5.5418
Cd 16.1109 -18.1883 -5.5266
Cd -14.5823 -17.4359 -5.5074
Cd 0.4557 18.7298 -5.4430
Cd 2.3871 11.5383 -5.4085
Cd 4.3185 4.3467 -5.3740
Cd 6.2499 -2.8448 -5.3396
Cd 8.1813 -10.0363 -5.3051
Cd -22.5119 -9.2840 -5.2859
Cd 10.1127 -17.2279 -5.2707
Cd -5.5425 19.6902 -5.1870
Cd -3.6111 12.4987 -5.1526
Cd -1.6797 5.3072 -5.1181
Cd 0.2517 -1.8844 -5.0836
Cd 2.1831 -9.0759 -5.0492
Cd 4.1145 -16.2674 -5.0147
Cd 6.0459 -23.4589 -4.9803
Cd -11.5407 20.6507 -4.9311
Cd -9.6093 13.4591 -4.8966
Cd 23.0154 5.5153 -4.8814
Cd -7.6779 6.2676 -4.8622
Cd -5.7465 -0.9239 -4.8277
Cd -3.8151 -8.1154 -4.7932
Cd -1.8837 -15.3070 -4.7588
Cd 0.0477 -22.4985 -4.7243
Cd 15.0858 13.6672 -4.6599
Cd -15.6075 14.4196 -4.6407
Cd 17.0172 6.4757 -4.6255
Cd -13.6761 7.2281 -4.6062
Cd 18.9486 -0.7158 -4.5910
Cd -11.7447 0.0365 -4.5718
Cd 20.8800 -7.9074 -4.5565
Cd -9.8133 -7.1550 -4.5373
Cd -7.8819 -14.3465 -4.5028
Cd -5.9505 -21.5381 -4.4684
Cd 7.1562 21.8192 -4.4384
Cd 9.0876 14.6277 -4.4040
Cd 11.0190 7.4361 -4.3695
Cd -19.6743 8.1885 -4.3503
Cd 12.9504 0.2446 -4.3351
Cd -17.7429 0.9970 -4.3158
Cd 14.8818 -6.9469 -4.3006
Cd -15.8115 -6.1946 -4.2814
Cd 16.8132 -14.1384 -4.2661
Cd -13.8801 -13.3861 -4.2469
Cd -11.9487 -20.5776 -4.2124
Cd 1.1579 22.7796 -4.1825
Cd 3.0894 15.5881 -4.1480
Cd 5.0208 8.3966 -4.1136
Cd 6.9522 1.2050 -4.0791
Cd -23.7411 1.9574 -4.0599
Cd 8.8836 -5.9865 -4.0447
Cd -21.8097 -5.2341 -4.0254
Cd 10.8150 -13.1780 -4.0102
Cd -19.8783 -12.4256 -3.9910
Cd 12.7464 -20.3695 -3.9757
Cd -4.8403 23.7401 -3.9265
Cd -2.9088 16.5485 -3.8921
Cd -0.9774 9.3570 -3.8576
Cd 0.9540 2.1655 -3.8232
Cd 2.8854 -5.0260 -3.7887
Cd 4.8168 -12.2176 -3.7543
Cd 6.7482 -19.4091 -3.7198
Cd -8.9071 17.5090 -3.6361
Cd -6.9756 10.3175 -3.6017
Cd -5.0442 3.1259 -3.5672
Cd -3.1128 -4.0656 -3.5328
Cd -1.1814 -11.2571 -3.4983
Cd 0.7500 -18.4487 -3.4639
Cd 15.7880 17.7171 -3.3994
Cd -14.9053 18.4694 -3.3802
Cd 17.7194 10.5255 -3.3650
Cd -12.9738 11.2779 -3.3457
Cd 19.6508 3.3340 -3.3305
Cd -11.0424 4.0864 -3.3113
Cd 21.5822 -3.8575 -3.2961
Cd -9.1110 -3.1052 -3.2768
Cd -7.1796 -10.2967 -3.2424
Cd -5.2482 -17.4882 -3.2079
Cd 9.7898 18.6775 -3.1435
Cd 11.7212 11.4860 -3.1090
Cd -18.9720 12.2383 -3.0898
Cd 13.6526 4.2945 -3.0746
Cd -17.0406 5.0468 -3.0553
Cd 15.5840 -2.8971 -3.0401
Cd -15.1092 -2.1447 -3.0209
Cd 17.5154 -10.0886 -3.0057
Cd -13.1778 -9.3362 -2.9864
Cd -11.2464 -16.5278 -2.9520
Cd 3.7916 19.6379 -2.8875
Cd 5.7230 12.4464 -2.8531
Cd 7.6544 5.2549 -2.8186
Cd -23.0388 6.0073 -2.7994
Cd 9.5858 -1.9366 -2.7842
Cd -21.1074 -1.1843 -2.7649
Cd 11.5172 -9.1282 -2.7497
Cd -19.1760 -8.3758 -2.7305
Cd 13.4487 -16.3197 -2.7153
Cd -17.2446 -15.5673 -2.6960
Cd -2.2066 20.5984 -2.6316
Cd -0.2752 13.4069 -2.5971
Cd 1.6562 6.2153 -2.5627
Cd 3.5876 -0.9762 -2.5282
Cd 5.5190 -8.1677 -2.4938
Cd 7.4504 -15.3593 -2.4593
Cd 9.3819 -22.5508 -2.4249
Cd -8.2048 21.5588 -2.3757
Cd -6.2734 14.3673 -2.3412
Cd -4.3420 7.1758 -2.3067
Cd -2.4106 -0.0158 -2.2723
Cd -0.4792 -7.2073 -2.2378
Cd 1.4522 -14.3988 -2.2034
Cd 3.3837 -21.5903 -2.1689
Cd 18.4217 14.5754 -2.1045
Cd -12.2716 15.3277 -2.0853
Cd 20.3531 7.3839 -2.0700
Cd -10.3402 8.1362 -2.0508
Cd 22.2845 0.1923 -2.0356
Cd -8.4088 0.9447 -2.0163
Cd -6.4774 -6.2468 -1.9819
Cd -4.5460 -13.4384 -1.9474
Cd -2.6146 -20.6299 -1.9130
Cd 12.4235 15.5358 -1.8486
Cd -18.2698 16.2882 -1.8293
Cd 14.3549 8.3443 -1.8141
Cd -16.3384 9.0967 -1.7949
Cd 16.2863 1.1528 -1.7796
Cd -14.4070 1.9051 -1.7604
Cd 18.2177 -6.0388 -1.7452
Cd -12.4756 -5.2864 -1.7259
Cd 20.1491 -13.2303 -1.7107
Cd -10.5442 -12.4779 -1.6915
Cd -8.6128 -19.6695 -1.6570
Cd 4.4939 23.6878 -1.6271
Cd 6.4253 16.4963 -1.5926
Cd 8.3567 9.3047 -1.5582
Cd -22.3366 10.0571 -1.5389
Cd 10.2881 2.1132 -1.5237
Cd -20.4052 2.8656 -1.5045
Cd 12.2195 -5.0783 -1.4892
Cd -18.4738 -4.3260 -1.4700
Cd 14.1509 -12.2698 -1.4548
Cd -16.5424 -11.5175 -1.4355
Cd -14.6110 -18.7090 -1.4011
Cd -1.5043 24.6482 -1.3711
Cd 0.4271 17.4567 -1.3367
Cd 2.3585 10.2652 -1.3022
Cd 4.2899 3.0736 -1.2678
Cd 6.2213 -4.1179 -1.2333
Cd -24.4720 -3.3655 -1.2141
Cd 8.1527 -11.3094 -1.1988
Cd -22.5406 -10.5570 -1.1796
Cd 10.0841 -18.5009 -1.1644
Cd -5.5711 18.4171 -1.0807
Cd -3.6397 11.2256 -1.0463
Cd -1.7083 4.0341 -1.0118
Cd 0.2231 -3.1574 -0.9774
Cd 2.1545 -10.3490 -0.9429
Cd 4.0859 -17.5405 -0.9084
Cd -11.5693 19.3776 -0.8248
Cd 21.0553 11.4337 -0.8096
Cd -9.6379 12.1861 -0.7903
Cd 22.9867 4.2422 -0.7751
Cd -7.7065 4.9945 -0.7559
Cd -5.7751 -2.1970 -0.7214
Cd -3.8437 -9.3885 -0.6870
Cd -1.9123 -16.5801 -0.6525
Cd 0.0191 -23.7716 -0.6180
Cd 13.1257 19.5857 -0.5881
Cd 15.0571 12.3941 -0.5536
Cd -15.6361 13.1465 -0.5344
Cd 16.9885 5.2026 -0.5192
Cd -13.7047 5.9550 -0.4999
Cd 18.9199 -1.9889 -0.4847
Cd -11.7733 -1.2366 -0.4655
Cd 20.8514 -9.1804 -0.4503
Cd -9.8419 -8.4281 -0.4310
Cd -7.9105 -15.6196 -0.3966
Cd -5.9791 -22.8111 -0.3621
Cd 7.1275 20.5461 -0.3321
Cd 9.0589 13.3546 -0.2977
Cd 10.9903 6.1631 -0.2632
Cd -19.7029 6.9154 -0.2440
Cd 12.9217 -1.0285 -0.2288
Cd -17.7715 -0.2761 -0.2095
Cd 14.8532 -8.2200 -0.1943
Cd -15.8401 -7.4676 -0.1751
Cd 16.7846 -15.4115 -0.1599
Cd -13.9087 -14.6592 -0.1406
Cd -11.9773 -21.8507 -0.1062
Cd 1.1293 21.5065 -0.0762
Cd 3.0607 14.3150 -0.0417
Cd 4.9921 7.1235 -0.0073
Cd 6.9235 -0.0680 0.0272
Cd -23.7697 0.6843 0.0464
Cd 8.8550 -7.2596 0.0616
Cd -21.8383 -6.5072 0.0809
Cd 10.7864 -14.4511 0.0961
Cd -19.9069 -13.6987 0.1153
Cd -4.8689 22.4670 0.1798
Cd -2.9375 15.2755 0.2142
Cd -1.0061 8.0839 0.2487
Cd 0.9253 0.8924 0.2831
Cd 2.8567 -6.2991 0.3176
Cd 4.7882 -13.4907 0.3520
Cd 6.7196 -20.6822 0.3865
Cd -8.9357 16.2359 0.4702
Cd -7.0043 9.0444 0.5046
Cd -5.0729 1.8528 0.5391
Cd -3.1415 -5.3387 0.5735
Cd -1.2100 -12.5302 0.6080
Cd 0.7214 -19.7217 0.6424
Cd 15.7594 16.4440 0.7069
Cd -14.9339 17.1963 0.7261
Cd 17.6908 9.2525 0.7413
Cd -13.0025 10.0048 0.7606
Cd 19.6222 2.0609 0.7758
Cd -11.0711 2.8133 0.7950
Cd 21.5536 -5.1306 0.8102
Cd -9.1397 -4.3782 0.8295
Cd -7.2083 -11.5698 0.8639
Cd -5.2768 -18.7613 0.8984
Cd 9.7612 17.4044 0.9628
Cd 11.6926 10.2129 0.9973
Cd -19.0007 10.9653 1.0165
Cd 13.6240 3.0214 1.0317
Cd -17.0693 3.7737 1.0510
Cd 15.5554 -4.1702 1.0662
Cd -15.1379 -3.4178 1.0854
Cd 17.4868 -11.3617 1.1006
Cd -13.2065 -10.6093 1.1199
Cd -11.2750 -17.8009 1.1543
Cd 3.7630 18.3649 1.2187
Cd 5.6944 11.1733 1.2532
Cd 7.6258 3.9818 1.2877
Cd -23.0675 4.7342 1.3069
Cd 9.5572 -3.2097 1.3221
Cd -21.1361 -2.4574 1.3414
Cd 11.4886 -10.4012 1.3566
Cd -19.2047 -9.6489 1.3758
Cd 13.4200 -17.5928 1.3910
Cd -17.2733 -16.8404 1.4103
Cd -2.2352 19.3253 1.4747
Cd -0.3038 12.1338 1.5091
Cd 1.6276 4.9422 1.5436
Cd 3.5590 -2.2493 1.5781
Cd 5.4904 -9.4408 1.6125
Cd 7.4218 -16.6323 1.6470
Cd -8.2334 20.2857 1.7306
Cd -6.3020 13.0942 1.7651
Cd -4.3706 5.9027 1.7995
Cd -2.4392 -1.2888 1.8340
Cd -0.5078 -8.4804 1.8685
Cd 1.4236 -15.6719 1.9029
Cd 3.3550 -22.8634 1.9374
Cd 18.3930 13.3023 2.0018
Cd -12.3002 14.0547 2.0210
Cd 20.3245 6.1108 2.0363
Cd -10.3688 6.8631 2.0555
Cd 22.2559 -1.0808 2.0707
Cd -8.4374 -0.3284 2.0900
Cd -6.5060 -7.5199 2.1244
Cd -4.5746 -14.7115 2.1589
Cd -2.6432 -21.9030 2.1933
Cd 10.4634 21.4543 2.2233
Cd 12.3948 14.2627 2.2577
Cd -18.2984 15.0151 2.2770
Cd 14.3262 7.0712 2.2922
Cd -16.3670 7.8236 2.3114
Cd 16.2577 -0.1203 2.3267
Cd -14.4356 0.6320 2.3459
Cd 18.1891 -7.3118 2.3611
Cd -12.5042 -6.5595 2.3804
Cd 20.1205 -14.5034 2.3956
Cd -10.5728 -13.7510 2.4148
Cd -8.6414 -20.9425 2.4493
Cd 4.4652 22.4147 2.4792
Cd 6.3966 15.2232 2.5137
Cd 8.3280 8.0317 2.5481
Cd -22.3652 8.7840 2.5674
Cd 10.2595 0.8401 2.5826
Cd -20.4338 1.5925 2.6018
Cd 12.1909 -6.3514 2.6171
Cd -18.5024 -5.5990 2.6363
Cd 14.1223 -13.5429 2.6515
Cd -16.5710 -12.7906 2.6708
Cd -14.6396 -19.9821 2.7052
Cd -1.5330 23.3751 2.7352
Cd 0.3984 16.1836 2.7696
Cd 2.3298 8.9921 2.8041
Cd 4.2613 1.8006 2.8385
Cd 6.1927 -5.3910 2.8730
Cd 8.1241 -12.5825 2.9075
Cd 10.0555 -19.7740 2.9419
Cd -5.5998 17.1441 3.0256
Cd -3.6684 9.9525 3.0600
Cd -1.7370 2.7610 3.0945
Cd 0.1945 -4.4305 3.1289
Cd 2.1259 -11.6220 3.1634
Cd 4.0573 -18.8136 3.1979
Cd -11.5980 18.1045 3.2815
Cd 21.0267 10.1606 3.2967
Cd -9.6666 10.9130 3.3160
Cd 22.9581 2.9691 3.3312
Cd -7.7352 3.7214 3.3504
Cd -5.8037 -3.4701 3.3849
Cd -3.8723 -10.6616 3.4193
Cd -1.9409 -17.8531 3.4538
Cd 13.0971 18.3126 3.5182
Cd 15.0285 11.1211 3.5527
Cd -15.6648 11.8734 3.5719
Cd 16.9599 3.9295 3.5871
Cd -13.7334 4.6819 3.6064
Cd 18.8913 -3.2620 3.6216
Cd -11.8020 -2.5096 3.6408
Cd 20.8227 -10.4535 3.6560
Cd -9.8705 -9.7012 3.6753
Cd -7.9391 -16.8927 3.7097
Cd 7.0989 19.2730 3.7742
Cd 9.0303 12.0815 3.8086
Cd 10.9617 4.8900 3.8431
Cd -19.7316 5.6423 3.8623
Cd 12.8931 -2.3016 3.8775
Cd -17.8002 -1.5492 3.8968
Cd 14.8245 -9.4931 3.9120
Cd -15.8687 -8.7407 3.9312
Cd 16.7559 -16.6846 3.9464
Cd -13.9373 -15.9323 3.9657
Cd 1.1007 20.2335 4.0301
Cd 3.0321 13.0419 4.0646
Cd 4.9635 5.8504 4.0990
Cd 6.8949 -1.3411 4.1335
Cd -23.7984 -0.5888 4.1527
Cd 8.8263 -8.5326 4.1679
Cd -21.8670 -7.7803 4.1872
Cd 10.7577 -15.7242 4.2024
Cd -4.8975 21.1939 4.2861
Cd -2.9661 14.0024 4.3205
Cd -1.0347 6.8109 4.3550
Cd 0.8967 -0.3807 4.3894
Cd 2.8281 -7.5722 4.4239
Cd 4.7595 -14.7637 4.4583
Cd 6.6909 -21.9553 4.4928
Cd -8.9643 14.9628 4.5765
Cd -7.0329 7.7713 4.6109
Cd -5.1015 0.5798 4.6454
Cd -3.1701 -6.6118 4.6798
Cd -1.2387 -13.8033 4.7143
Cd 0.6927 -20.9948 4.7487
Cd 15.7308 15.1709 4.8132
Cd -14.9625 15.9233 4.8324
Cd 17.6622 7.9794 4.8476
Cd -13.0311 8.7317 4.8669
Cd 19.5936 0.7878 4.8821
Cd -11.0997 1.5402 4.9013
Cd 21.5250 -6.4037 4.9165
Cd -9.1683 -5.6513 4.9358
Cd -7.2369 -12.8429 4.9702
Cd -5.3055 -20.0344 5.0047
Cd 9.7325 16.1313 5.0691
Cd 11.6640 8.9398 5.1036
Cd -19.0293 9.6922 5.1228
Cd 13.5954 1.7483 5.1380
Cd -17.0979 2.5006 5.1573
Cd 15.5268 -5.4432 5.1725
Cd -15.1665 -4.6909 5.1917
Cd 17.4582 -12.6348 5.2069
Cd -13.2351 -11.8824 5.2262
Cd -11.3037 -19.0739 5.2606
Cd 1.8029 24.2833 5.2906
Cd 3.7343 17.0918 5.3250
Cd 5.6658 9.9003 5.3595
Cd 7.5972 2.7087 5.3940
Cd -23.0961 3.4611 5.4132
Cd 9.5286 -4.4828 5.4284
Cd -21.1647 -3.7304 5.4477
Cd 11.4600 -11.6743 5.4629
Cd -19.2333 -10.9220 5.4821
Cd 13.3914 -18.8659 5.4973
Cd -2.2639 18.0522 5.5810
Cd -0.3325 10.8607 5.6154
Cd 1.5990 3.6692 5.6499
Cd 3.5304 -3.5224 5.6844
Cd 5.4618 -10.7139 5.7188
Cd 7.3932 -17.9054 5.7533
Cd -8.2621 19.0127 5.8369
Cd -6.3307 11.8211 5.8714
Cd -4.3992 4.6296 5.9058
Cd -2.4678 -2.5619 5.9403
Cd -0.5364 -9.7534 5.9748
Cd 1.3950 -16.9450 6.0092
Cd 18.3644 12.0292 6.1081
Cd -12.3289 12.7816 6.1273
Cd 20.2958 4.8377 6.1425
Cd -10.3974 5.5900 6.1618
Cd 22.2272 -2.3538 6.1770
Cd -8.4660 -1.6015 6.1962
Cd -6.5346 -8.7930 6.2307
Cd -4.6032 -15.9845 6.2652
Cd -2.6718 -23.1761 6.2996
Cd 10.4348 20.1812 6.3296
Cd 12.3662 12.9897 6.3640
Cd -18.3271 13.7420 6.3833
Cd 14.2976 5.7981 6.3985
Cd -16.3957 6.5505 6.4177
Cd 16.2290 -1.3934 6.4329
Cd -14.4642 -0.6410 6.4522
Cd 18.1604 -8.5849 6.4674
Cd -12.5328 -7.8326 6.4866
Cd -10.6014 -15.0241 6.5211
Cd -8.6700 -22.2156 6.5556
Cd 4.4366 21.1416 6.5855
Cd 6.3680 13.9501 6.6200
Cd 8.2994 6.7586 6.6544
Cd -22.3939 7.5109 6.6737
Cd 10.2308 -0.4330 6.6889
Cd -20.4624 0.3194 6.7081
Cd 12.1622 -7.6245 6.7233
Cd -18.5310 -6.8721 6.7426
Cd 14.0936 -14.8160 6.7578
Cd -16.5996 -14.0637 6.7770
Cd -1.5616 22.1021 6.8415
Cd 0.3698 14.9105 6.8759
Cd 2.3012 7.7190 6.9104
Cd 4.2326 0.5275 6.9448
Cd 6.1640 -6.6640 6.9793
Cd 8.0954 -13.8556 7.0137
Cd 10.0268 -21.0471 7.0482
Cd -5.6284 15.8710 7.1319
Cd -3.6970 8.6795 7.1663
Cd -1.7656 1.4879 7.2008
Cd 0.1658 -5.7036 7.2352
Cd 2.0972 -12.8951 7.2697
Cd 4.0286 -20.0867 7.3041
Cd -11.6266 16.8314 7.3878
Cd 20.9981 8.8875 7.4030
Cd -9.6952 9.6399 7.4223
Cd 22.9295 1.6960 7.4375
Cd -7.7638 2.4484 7.4567
Cd -5.8324 -4.7432 7.4912
Cd -3.9010 -11.9347 7.5256
Cd -1.9696 -19.1262 7.5601
Cd 13.0685 17.0395 7.6245
Cd 14.9999 9.8480 7.6590
Cd -15.6934 10.6003 7.6782
Cd 16.9313 2.6564 7.6934
Cd -13.7620 3.4088 7.7127
Cd 18.8627 -4.5351 7.7279
Cd -11.8306 -3.7827 7.7471
Cd -9.8992 -10.9743 7.7816
Cd -7.9678 -18.1658 7.8160
Cd 7.0703 17.9999 7.8805
Cd 9.0017 10.8084 7.9149
Cd 10.9331 3.6169 7.9494
Cd -19.7602 4.3692 7.9686
Cd 12.8645 -3.5746 7.9838
Cd -17.8288 -2.8223 8.0031
Cd 14.7959 -10.7662 8.0183
Cd -15.8974 -10.0138 8.0375
Cd -13.9660 -17.2053 8.0720
Cd 1.0721 18.9604 8.1364
Cd 3.0035 11.7689 8.1709
Cd 4.9349 4.5773 8.2053
Cd 6.8663 -2.6142 8.2398
Cd 8.7977 -9.8057 8.2742
Cd 10.7291 -16.9973 8.3087
Cd -4.9262 19.9208 8.3923
Cd -2.9947 12.7293 8.4268
Cd -1.0633 5.5378 8.4613
Cd 0.8681 -1.6538 8.4957
Cd 2.7995 -8.8453 8.5302
Cd 4.7309 -16.0368 8.5646
Cd -8.9929 13.6897 8.6827
Cd -7.0615 6.4982 8.7172
Cd -5.1301 -0.6933 8.7517
Cd -3.1987 -7.8848 8.7861
Cd -1.2673 -15.0764 8.8206
Cd 0.6641 -22.2679 8.8550
Cd 15.7021 13.8978 8.9194
Cd -14.9911 14.6502 8.9387
Cd 17.6335 6.7063 8.9539
Cd -13.0597 7.4586 8.9731
Cd 19.5649 -0.4852 8.9884
Cd -11.1283 0.2671 9.0076
Cd 21.4963 -7.6768 9.0228
Cd -9.1969 -6.9244 9.0421
Cd -7.2655 -14.1159 9.0765
Cd -5.3341 -21.3075 9.1110
Cd 9.7039 14.8583 9.1754
Cd 11.6353 7.6667 9.2098
Cd -19.0579 8.4191 9.2291
Cd 13.5667 0.4752 9.2443
Cd -17.1265 1.2276 9.2635
Cd 15.4981 -6.7163 9.2788
Cd -15.1951 -5.9640 9.2980
Cd 17.4296 -13.9079 9.3132
Cd -13.2637 -13.1555 9.3325
Cd 1.7743 23.0102 9.3969
Cd 3.7057 15.8187 9.4313
Cd 5.6371 8.6272 9.4658
Cd 7.5685 1.4356 9.5002
Cd 9.4999 -5.7559 9.5347
Cd -21.1933 -5.0035 9.5539
Cd 11.4313 -12.9474 9.5692
Cd -19.2619 -12.1951 9.5884
Cd -2.2925 16.7791 9.6873
Cd -0.3611 9.5876 9.7217
Cd 1.5703 2.3961 9.7562
Cd 3.5017 -4.7954 9.7906
Cd 5.4331 -11.9870 9.8251
Cd 7.3646 -19.1785 9.8596
Cd -8.2907 17.7396 9.9432
Cd -6.3593 10.5481 9.9777
Cd -4.4279 3.3565 10.0121
Cd -2.4965 -3.8350 10.0466
Cd -0.5651 -11.0265 10.0810
Cd 1.3663 -18.2181 10.1155
Cd 18.3358 10.7561 10.2144
Cd -12.3575 11.5085 10.2336
Cd 20.2672 3.5646 10.2488
Cd -10.4261 4.3170 10.2681
Cd 22.1986 -3.6269 10.2833
Cd -8.4947 -2.8746 10.3025
Cd -6.5633 -10.0661 10.3370
Cd -4.6319 -17.2576 10.3714
Cd 10.4062 18.9081 10.4359
Cd 12.3376 11.7166 10.4703
Cd -18.3557 12.4689 10.4896
Cd 14.2690 4.5250 10.5048
Cd -16.4243 5.2774 10.5240
Cd 16.2004 -2.6665 10.5392
Cd -14.4929 -1.9141 10.5585
Cd 18.1318 -9.8580 10.5737
Cd -12.5615 -9.1056 10.5929
Cd -10.6301 -16.2972 10.6274
Cd 4.4080 19.8685 10.6918
Cd 6.3394 12.6770 10.7263
Cd 8.2708 5.4855 10.7607
Cd 10.2022 -1.7060 10.7952
Cd -20.4911 -0.9537 10.8144
Cd 12.1336 -8.8976 10.8296
Cd -18.5597 -8.1452 10.8489
Cd 14.0650 -16.0891 10.8641
Cd -1.5902 20.8290 10.9478
Cd 0.3412 13.6375 10.9822
Cd 2.2726 6.4459 11.0167
Cd 4.2040 -0.7456 11.0511
Cd 6.1354 -7.9371 11.0856
Cd 8.0668 -15.1287 11.1200
Cd -5.6570 14.5979 11.2382
Cd -3.7256 7.4064 11.2726
Cd -1.7942 0.2148 11.3071
Cd 0.1372 -6.9767 11.3415
Cd 2.0686 -14.1682 11.3760
Cd 4.0000 -21.3597 11.4104
Cd -11.6552 15.5583 11.4941
Cd -9.7238 8.3668 11.5286
Cd -7.7924 1.1753 11.5630
Cd -5.8610 -6.0162 11.5975
Cd -3.9296 -13.2078 11.6319
Cd -1.9982 -20.3993 11.6664
Cd 13.0398 15.7664 11.7308
Cd 14.9712 8.5749 11.7653
Cd -15.7220 9.3273 11.7845
Cd 16.9026 1.3834 11.7997
Cd -13.7906 2.1357 11.8190
Cd 18.8341 -5.8082 11.8342
Cd -11.8592 -5.0558 11.8534
Cd -9.9278 -12.2473 11.8879
Cd -7.9964 -19.4389 11.9223
Cd 7.0416 16.7269 11.9867
Cd 8.9730 9.5353 12.0212
Cd 10.9044 2.3438 12.0557
Cd -19.7888 3.0962 12.0749
Cd 12.8359 -4.8477 12.0901
Cd -17.8574 -4.0954 12.1094
Cd 14.7673 -12.0393 12.1246
Cd -15.9260 -11.2869 12.1438
Cd 1.0434 17.6873 12.2427
Cd 2.9748 10.4958 12.2771
Cd 4.9062 3.3042 12.3116
Cd 6.8376 -3.8873 12.3461
Cd 8.7691 -11.0788 12.3805
Cd 10.7005 -18.2703 12.4150
Cd -4.9548 18.6477 12.4986
Cd -3.0234 11.4562 12.5331
Cd -1.0920 4.2647 12.5675
Cd 0.8394 -2.9268 12.6020
Cd 2.7709 -10.1184 12.6365
Cd 4.7023 -17.3099 12.6709
Cd -9.0216 12.4167 12.7890
Cd -7.0902 5.2251 12.8235
Cd -5.1588 -1.9664 12.8579
Cd -3.2274 -9.1579 12.8924
Cd -1.2959 -16.3495 12.9269
Cd 15.6735 12.6247 13.0257
Cd -15.0198 13.3771 13.0450
Cd 17.6049 5.4332 13.0602
Cd -13.0884 6.1856 13.0794
Cd 19.5363 -1.7583 13.0947
Cd -11.1570 -1.0060 13.1139
Cd -9.2256 -8.1975 13.1483
Cd -7.2941 -15.3890 13.1828
Cd 9.6753 13.5852 13.2817
Cd 11.6067 6.3936 13.3161
Cd -19.0866 7.1460 13.3354
Cd 13.5381 -0.7979 13.3506
Cd -17.1552 -0.0455 13.3698
Cd 15.4695 -7.9894 13.3851
Cd -15.2238 -7.2370 13.4043
Cd -13.2924 -14.4286 13.4387
Cd 3.6771 14.5456 13.5376
Cd 5.6085 7.3541 13.5721
Cd 7.5399 0.1626 13.6065
Cd 9.4713 -7.0290 13.6410
Cd 11.4027 -14.2205 13.6755
Cd -2.3211 15.5061 13.7936
Cd -0.3897 8.3145 13.8280
Cd 1.5417 1.1230 13.8625
Cd 3.4731 -6.0685 13.8969
Cd 5.4045 -13.2601 13.9314
Cd -8.3193 16.4665 14.0495
Cd -6.3879 9.2750 14.0840
Cd -4.4565 2.0834 14.1184
Cd -2.5251 -5.1081 14.1529
Cd -0.5937 -12.2996 14.1873
Cd 1.3377 -19.4911 14.2218
Cd -12.3861 10.2354 14.3399
Cd 20.2386 2.2915 14.3551
Cd -10.4547 3.0439 14.3744
Cd -8.5233 -4.1476 14.4088
Cd -6.5919 -11.3392 14.4433
Cd -4.6605 -18.5307 14.4777
Cd 12.3089 10.4435 14.5766
Cd 14.2404 3.2520 14.6111
Cd -16.4529 4.0043 14.6303
Cd 16.1718 -3.9396 14.6455
Cd -14.5215 -3.1872 14.6648
Cd -12.5901 -10.3787 14.6992
Cd 4.3793 18.5955 14.7981
Cd 6.3107 11.4039 14.8326
Cd 8.2421 4.2124 14.8670
Cd 10.1736 -2.9791 14.9015
Cd 12.1050 -10.1707 14.9359
Cd -1.6189 19.5559 15.0541
Cd 0.3125 12.3644 15.0885
Cd 2.2439 5.1728 15.1230
Cd 4.1754 -2.0187 15.1574
Cd 6.1068 -9.2102 15.1919
Cd 8.0382 -16.4017 15.2263
Cd -5.6857 13.3248 15.3445
Cd -3.7543 6.1333 15.3789
Cd -1.8228 -1.0582 15.4134
Cd 0.1086 -8.2498 15.4478
Cd 2.0400 -15.4413 15.4823
Cd -11.6839 14.2853 15.6004
Cd -9.7525 7.0937 15.6349
Cd -7.8211 -0.0978 15.6693
Cd -5.8896 -7.2893 15.7038
Cd -3.9582 -14.4809 15.7382
Cd 14.9426 7.3018 15.8716
Cd -15.7507 8.0542 15.8908
Cd 16.8740 0.1103 15.9060
Cd -13.8193 0.8626 15.9253
Cd -11.8878 -6.3289 15.9597
Cd -9.9564 -13.5204 15.9942
Cd 7.0130 15.4538 16.0930
Cd 8.9444 8.2622 16.1275
Cd 10.8758 1.0707 16.1620
Cd 12.8072 -6.1208 16.1964
Cd -17.8861 -5.3684 16.2157
Cd 1.0148 16.4142 16.3490
Cd 2.9462 9.2227 16.3834
Cd 4.8776 2.0312 16.4179
Cd 6.8090 -5.1604 16.4524
Cd 8.7404 -12.3519 16.4868
Cd -4.9834 17.3747 16.6049
Cd -3.0520 10.1831 16.6394
Cd -1.1206 2.9916 16.6738
Cd 0.8108 -4.1999 16.7083
Cd 2.7422 -11.3915 16.7428
Cd -9.0502 11.1436 16.8953
Cd -7.1188 3.9520 16.9298
Cd -5.1874 -3.2395 16.9642
Cd -3.2560 -10.4310 16.9987
Cd -1.3246 -17.6225 17.0332
Cd 17.5763 4.1601 17.1665
Cd -13.1170 4.9125 17.1857
Cd -11.1856 -2.2790 17.2202
Cd -9.2542 -9.4706 17.2546
Cd 9.6467 12.3121 17.3880
Cd 11.5781 5.1206 17.4224
Cd 13.5095 -2.0710 17.4569
Cd -17.1838 -1.3186 17.4761
Cd -15.2524 -8.5101 17.5106
Cd 3.6484 13.2725 17.6439
Cd 5.5799 6.0810 17.6784
Cd 7.5113 -1.1105 17.7128
Cd 9.4427 -8.3021 17.7473
Cd -2.3498 14.2330 17.8999
Cd -0.4183 7.0414 17.9343
Cd 1.5131 -0.1501 17.9688
Cd 3.4445 -7.3416 18.0032
Cd 5.3759 -14.5331 18.0377
Cd -6.4165 8.0019 18.1903
Cd -4.4851 0.8104 18.2247
Cd -2.5537 -6.3812 18.2592
Cd -0.6223 -13.5727 18.2936
Cd -12.4148 8.9623 18.4462
Cd -10.4833 1.7708 18.4807
Cd -8.5519 -5.4207 18.5151
Cd -6.6205 -12.6123 18.5496
Cd 12.2803 9.1704 18.6829
Cd 14.2117 1.9789 18.7174
Cd -14.5501 -4.4603 18.7711
Cd 6.2821 10.1308 18.9389
Cd 8.2135 2.9393 18.9733
Cd 10.1449 -4.2522 19.0078
Cd 0.2839 11.0913 19.1948
Cd 2.2153 3.8998 19.2293
Cd 4.1467 -3.2918 19.2637
Cd 6.0781 -10.4833 19.2982
Cd -5.7143 12.0517 19.4507
Cd -3.7829 4.8602 19.4852
Cd -1.8515 -2.3313 19.5197
Cd 0.0799 -9.5229 19.5541
Cd -9.7811 5.8206 19.7411
Cd -7.8497 -1.3709 19.7756
Cd -5.9183 -8.5624 19.8101
Cd -13.8479 -0.4104 20.0315
Cd -11.9165 -7.6020 20.0660
Cd 8.9158 6.9892 20.2338
Cd 10.8472 -0.2024 20.2682
Cd 2.9176 7.9496 20.4897
Cd 4.8490 0.7581 20.5242
Cd 6.7804 -6.4335 20.5586
Cd -3.0806 8.9100 20.7457
Cd -1.1492 1.7185 20.7801
Cd 0.7822 -5.4730 20.8146
Cd 2.7136 -12.6645 20.8490
Cd -9.0788 9.8705 21.0016
Cd -7.1474 2.6790 21.0361
Cd -5.2160 -4.5126 21.0705
Cd -3.2846 -11.7041 21.1050
Cd -11.2142 -3.5521 21.3265
Cd 11.5494 3.8475 21.5287
Cd 5.5512 4.8079 21.7847
Cd 7.4826 -2.3836 21.8191
Cd -0.4470 5.7684 22.0406
Cd 1.4844 -1.4232 22.0751
Cd 3.4158 -8.6147 22.1095
Cd -6.4452 6.7288 22.2966
Cd -4.5138 -0.4627 22.3310
Cd -2.5824 -7.6543 22.3655
Cd -10.5120 0.4977 22.5870
Cd 8.1849 1.6662 23.0796
Cd 2.1867 2.6267 23.3355
Cd 4.1181 -4.5649 23.3700
Cd -3.8115 3.5871 23.5915
Cd -1.8801 -3.6044 23.6259
Cd -1.1779 0.4454 24.8864
Se 1.1779 -0.4454 -24.8864
Se 1.8801 3.6044 -23.6259
Se 3.8115 -3.5871 -23.5915
Se -4.1181 4.5649 -23.3700
Se -2.1867 -2.6267 -23.3355
Se -8.1849 -1.6662 -23.0796
Se 10.5120 -0.4977 -22.5870
Se 2.5824 7.6543 -22.3655
Se 4.5138 0.4627 -22.3310
Se 6.4452 -6.7288 -22.2966
Se -3.4158 8.6147 -22.1095
Se -1.4844 1.4232 -22.0751
Se 0.4470 -5.7684 -22.0406
Se -7.4826 2.3836 -21.8191
Se -5.5512 -4.8079 -21.7847
Se -11.5494 -3.8475 -21.5287
Se 11.2142 3.5521 -21.3265
Se 3.2846 11.7041 -21.1050
Se 5.2160 4.5126 -21.0705
Se 7.1474 -2.6790 -21.0361
Se 9.0788 -9.8705 -21.0016
Se -2.7136 12.6645 -20.8490
Se -0.7822 5.4730 -20.8146
Se 1.1492 -1.7185 -20.7801
Se 3.0806 -8.9100 -20.7457
Se -6.7804 6.4335 -20.5586
Se -4.8490 -0.7581 -20.5242
Se -2.9176 -7.9496 -20.4897
Se -10.8472 0.2024 -20.2682
Se -8.9158 -6.9892 -20.2338
Se 11.9165 7.6020 -20.0660
Se 13.8479 0.4104 -20.0315
Se 5.9183 8.5624 -19.8101
Se 7.8497 1.3709 -19.7756
Se 9.7811 -5.8206 -19.7411
Se -0.0799 9.5229 -19.5541
Se 1.8515 2.3313 -19.5197
Se 3.7829 -4.8602 -19.4852
Se 5.7143 -12.0517 -19.4507
Se -6.0781 10.4833 -19.2982
Se -4.1467 3.2918 -19.2637
Se -2.2153 -3.8998 -19.2293
Se -0.2839 -11.0913 -19.1948
Se -10.1449 4.2522 -19.0078
Se -8.2135 -2.9393 -18.9733
Se -6.2821 -10.1308 -18.9389
Se 14.5501 4.4603 -18.7711
Se -14.2117 -1.9789 -18.7174
Se -12.2803 -9.1704 -18.6829
Se 6.6205 12.6123 -18.5496
Se 8.5519 5.4207 -18.5151
Se 10.4833 -1.7708 -18.4807
Se 12.4148 -8.9623 -18.4462
Se 0.6223 13.5727 -18.2936
Se 2.5537 6.3812 -18.2592
Se 4.4851 -0.8104 -18.2247
Se 6.4165 -8.0019 -18.1903
Se -5.3759 14.5331 -18.0377
Se -3.4445 7.3416 -18.0032
Se -1.5131 0.1501 -17.9688
Se 0.4183 -7.0414 -17.9343
Se 2.3498 -14.2330 -17.8999
Se -9.4427 8.3021 -17.7473
Se -7.5113 1.1105 -17.7128
Se -5.5799 -6.0810 -17.6784
Se -3.6484 -13.2725 -17.6439
Se 15.2524 8.5101 -17.5106
Se 17.1838 1.3186 -17.4761
Se -13.5095 2.0710 -17.4569
Se -11.5781 -5.1206 -17.4224
Se -9.6467 -12.3121 -17.3880
Se 9.2542 9.4706 -17.2546
Se 11.1856 2.2790 -17.2202
Se 13.1170 -4.9125 -17.1857
Se -17.5763 -4.1601 -17.1665
Se 1.3246 17.6225 -17.0332
Se 3.2560 10.4310 -16.9987
Se 5.1874 3.2395 -16.9642
Se 7.1188 -3.9520 -16.9298
Se 9.0502 -11.1436 -16.8953
Se -2.7422 11.3915 -16.7428
Se -0.8108 4.1999 -16.7083
Se 1.1206 -2.9916 -16.6738
Se 3.0520 -10.1831 -16.6394
Se 4.9834 -17.3747 -16.6049
Se -8.7404 12.3519 -16.4868
Se -6.8090 5.1604 -16.4524
Se -4.8776 -2.0312 -16.4179
Se -2.9462 -9.2227 -16.3834
Se -1.0148 -16.4142 -16.3490
Se 17.8861 5.3684 -16.2157
Se -12.8072 6.1208 -16.1964
Se -10.8758 -1.0707 -16.1620
Se -8.9444 -8.2622 -16.1275
Se -7.0130 -15.4538 -16.0930
Se 9.9564 13.5204 -15.9942
Se 11.8878 6.3289 -15.9597
Se 13.8193 -0.8626 -15.9253
Se -16.8740 -0.1103 -15.9060
Se 15.7507 -8.0542 -15.8908
Se -14.9426 -7.3018 -15.8716
Se 3.9582 14.4809 -15.7382
Se 5.8896 7.2893 -15.7038
Se 7.8211 0.0978 -15.6693
Se 9.7525 -7.0937 -15.6349
Se 11.6839 -14.2853 -15.6004
Se -2.0400 15.4413 -15.4823
Se -0.1086 8.2498 -15.4478
Se 1.8228 1.0582 -15.4134
Se 3.7543 -6.1333 -15.3789
Se 5.6857 -13.3248 -15.3445
Se -8.0382 16.4017 -15.2263
Se -6.1068 9.2102 -15.1919
Se -4.1754 2.0187 -15.1574
Se -2.2439 -5.1728 -15.1230
Se -0.3125 -12.3644 -15.0885
Se 1.6189 -19.5559 -15.0541
Se -12.1050 10.1707 -14.9359
Se -10.1736 2.9791 -14.9015
Se -8.2421 -4.2124 -14.8670
Se -6.3107 -11.4039 -14.8326
Se -4.3793 -18.5955 -14.7981
Se 12.5901 10.3787 -14.6992
Se 14.5215 3.1872 -14.6648
Se -16.1718 3.9396 -14.6455
Se 16.4529 -4.0043 -14.6303
Se -14.2404 -3.2520 -14.6111
Se -12.3089 -10.4435 -14.5766
Se 4.6605 18.5307 -14.4777
Se 6.5919 11.3392 -14.4433
Se 8.5233 4.1476 -14.4088
Se 10.4547 -3.0439 -14.3744
Se -20.2386 -2.2915 -14.3551
Se 12.3861 -10.2354 -14.3399
Se -1.3377 19.4911 -14.2218
Se 0.5937 12.2996 -14.1873
Se 2.5251 5.1081 -14.1529
Se 4.4565 -2.0834 -14.1184
Se 6.3879 -9.2750 -14.0840
Se 8.3193 -16.4665 -14.0495
Se -5.4045 13.2601 -13.9314
Se -3.4731 6.0685 -13.8969
Se -1.5417 -1.1230 -13.8625
Se 0.3897 -8.3145 -13.8280
Se 2.3211 -15.5061 -13.7936
Se -11.4027 14.2205 -13.6755
Se -9.4713 7.0290 -13.6410
Se -7.5399 -0.1626 -13.6065
Se -5.6085 -7.3541 -13.5721
Se -3.6771 -14.5456 -13.5376
Se 13.2924 14.4286 -13.4387
Se 15.2238 7.2370 -13.4043
Se -15.4695 7.9894 -13.3851
Se 17.1552 0.0455 -13.3698
Se -13.5381 0.7979 -13.3506
Se 19.0866 -7.1460 -13.3354
Se -11.6067 -6.3936 -13.3161
Se -9.6753 -13.5852 -13.2817
Se 7.2941 15.3890 -13.1828
Se 9.2256 8.1975 -13.1483
Se 11.1570 1.0060 -13.1139
Se -19.5363 1.7583 -13.0947
Se 13.0884 -6.1856 -13.0794
Se -17.6049 -5.4332 -13.0602
Se 15.0198 -13.3771 -13.0450
Se -15.6735 -12.6247 -13.0257
Se 1.2959 16.3495 -12.9269
Se 3.2274 9.1579 -12.8924
Se 5.1588 1.9664 -12.8579
Se 7.0902 -5.2251 -12.8235
Se 9.0216 -12.4167 -12.7890
Se -4.7023 17.3099 -12.6709
Se -2.7709 10.1184 -12.6365
Se -0.8394 2.9268 -12.6020
Se 1.0920 -4.2647 -12.5675
Se 3.0234 -11.4562 -12.5331
Se 4.9548 -18.6477 -12.4986
Se -10.7005 18.2703 -12.4150
Se -8.7691 11.0788 -12.3805
Se -6.8376 3.8873 -12.3461
Se -4.9062 -3.3042 -12.3116
Se -2.9748 -10.4958 -12.2771
Se -1.0434 -17.6873 -12.2427
Se 15.9260 11.2869 -12.1438
Se -14.7673 12.0393 -12.1246
Se 17.8574 4.0954 -12.1094
Se -12.8359 4.8477 -12.0901
Se 19.7888 -3.0962 -12.0749
Se -10.9044 -2.3438 -12.0557
Se -8.9730 -9.5353 -12.0212
Se -7.0416 -16.7269 -11.9867
Se 7.9964 19.4389 -11.9223
Se 9.9278 12.2473 -11.8879
Se 11.8592 5.0558 -11.8534
Se -18.8341 5.8082 -11.8342
Se 13.7906 -2.1357 -11.8190
Se -16.9026 -1.3834 -11.7997
Se 15.7220 -9.3273 -11.7845
Se -14.9712 -8.5749 -11.7653
Se -13.0398 -15.7664 -11.7308
Se 1.9982 20.3993 -11.6664
Se 3.9296 13.2078 -11.6319
Se 5.8610 6.0162 -11.5975
Se 7.7924 -1.1753 -11.5630
Se 9.7238 -8.3668 -11.5286
Se 11.6552 -15.5583 -11.4941
Se -4.0000 21.3597 -11.4104
Se -2.0686 14.1682 -11.3760
Se -0.1372 6.9767 -11.3415
Se 1.7942 -0.2148 -11.3071
Se 3.7256 -7.4064 -11.2726
Se 5.6570 -14.5979 -11.2382
Se -8.0668 15.1287 -11.1200
Se -6.1354 7.9371 -11.0856
Se -4.2040 0.7456 -11.0511
Se -2.2726 -6.4459 -11.0167
Se -0.3412 -13.6375 -10.9822
Se 1.5902 -20.8290 -10.9478
Se -14.0650 16.0891 -10.8641
Se 18.5597 8.1452 -10.8489
Se -12.1336 8.8976 -10.8296
Se 20.4911 0.9537 -10.8144
Se -10.2022 1.7060 -10.7952
Se -8.2708 -5.4855 -10.7607
Se -6.3394 -12.6770 -10.7263
Se -4.4080 -19.8685 -10.6918
Se 10.6301 16.2972 -10.6274
Se 12.5615 9.1056 -10.5929
Se -18.1318 9.8580 -10.5737
Se 14.4929 1.9141 -10.5585
Se -16.2004 2.6665 -10.5392
Se 16.4243 -5.2774 -10.5240
Se -14.2690 -4.5250 -10.5048
Se 18.3557 -12.4689 -10.4896
Se -12.3376 -11.7166 -10.4703
Se -10.4062 -18.9081 -10.4359
Se 4.6319 17.2576 -10.3714
Se 6.5633 10.0661 -10.3370
Se 8.4947 2.8746 -10.3025
Se -22.1986 3.6269 -10.2833
Se 10.4261 -4.3170 -10.2681
Se -20.2672 -3.5646 -10.2488
Se 12.3575 -11.5085 -10.2336
Se -18.3358 -10.7561 -10.2144
Se -1.3663 18.2181 -10.1155
Se 0.5651 11.0265 -10.0810
Se 2.4965 3.8350 -10.0466
Se 4.4279 -3.3565 -10.0121
Se 6.3593 -10.5481 -9.9777
Se 8.2907 -17.7396 -9.9432
Se -7.3646 19.1785 -9.8596
Se -5.4331 11.9870 -9.8251
Se -3.5017 4.7954 -9.7906
Se -1.5703 -2.3961 -9.7562
Se 0.3611 -9.5876 -9.7217
Se 2.2925 -16.7791 -9.6873
Se 19.2619 12.1951 -9.5884
Se -11.4313 12.9474 -9.5692
Se 21.1933 5.0035 -9.5539
Se -9.4999 5.7559 -9.5347
Se -7.5685 -1.4356 -9.5002
Se -5.6371 -8.6272 -9.4658
Se -3.7057 -15.8187 -9.4313
Se -1.7743 -23.0102 -9.3969
Se 13.2637 13.1555 -9.3325
Se -17.4296 13.9079 -9.3132
Se 15.1951 5.9640 -9.2980
Se -15.4981 6.7163 -9.2788
Se 17.1265 -1.2276 -9.2635
Se -13.5667 -0.4752 -9.2443
Se 19.0579 -8.4191 -9.2291
Se -11.6353 -7.6667 -9.2098
Se -9.7039 -14.8583 -9.1754
Se 5.3341 21.3075 -9.1110
Se 7.2655 14.1159 -9.0765
Se 9.1969 6.9244 -9.0421
Se -21.4963 7.6768 -9.0228
Se 11.1283 -0.2671 -9.0076
Se -19.5649 0.4852 -8.9884
Se 13.0597 -7.4586 -8.9731
Se -17.6335 -6.7063 -8.9539
Se 14.9911 -14.6502 -8.9387
Se -15.7021 -13.8978 -8.9194
Se -0.6641 22.2679 -8.8550
Se 1.2673 15.0764 -8.8206
Se 3.1987 7.8848 -8.7861
Se 5.1301 0.6933 -8.7517
Se 7.0615 -6.4982 -8.7172
Se 8.9929 -13.6897 -8.6827
Se -4.7309 16.0368 -8.5646
Se -2.7995 8.8453 -8.5302
Se -0.8681 1.6538 -8.4957
Se 1.0633 -5.5378 -8.4613
Se 2.9947 -12.7293 -8.4268
Se 4.9262 -19.9208 -8.3923
Se -10.7291 16.9973 -8.3087
Se -8.7977 9.8057 -8.2742
Se -6.8663 2.6142 -8.2398
Se -4.9349 -4.5773 -8.2053
Se -3.0035 -11.7689 -8.1709
Se -1.0721 -18.9604 -8.1364
Se 13.9660 17.2053 -8.0720
Se 15.8974 10.0138 -8.0375
Se -14.7959 10.7662 -8.0183
Se 17.8288 2.8223 -8.0031
Se -12.8645 3.5746 -7.9838
Se 19.7602 -4.3692 -7.9686
Se -10.9331 -3.6169 -7.9494
Se -9.0017 -10.8084 -7.9149
Se -7.0703 -17.9999 -7.8805
Se 7.9678 18.1658 -7.8160
Se 9.8992 10.9743 -7.7816
Se 11.8306 3.7827 -7.7471
Se -18.8627 4.5351 -7.7279
Se 13.7620 -3.4088 -7.7127
Se -16.9313 -2.6564 -7.6934
Se 15.6934 -10.6003 -7.6782
Se -14.9999 -9.8480 -7.6590
Se -13.0685 -17.0395 -7.6245
Se 1.9696 19.1262 -7.5601
Se 3.9010 11.9347 -7.5256
Se 5.8324 4.7432 -7.4912
Se 7.7638 -2.4484 -7.4567
Se -22.9295 -1.6960 -7.4375
Se 9.6952 -9.6399 -7.4223
Se -20.9981 -8.8875 -7.4030
Se 11.6266 -16.8314 -7.3878
Se -4.0286 20.0867 -7.3041
Se -2.0972 12.8951 -7.2697
Se -0.1658 5.7036 -7.2352
Se 1.7656 -1.4879 -7.2008
Se 3.6970 -8.6795 -7.1663
Se 5.6284 -15.8710 -7.1319
Se -10.0268 21.0471 -7.0482
Se -8.0954 13.8556 -7.0137
Se -6.1640 6.6640 -6.9793
Se -4.2326 -0.5275 -6.9448
Se -2.3012 -7.7190 -6.9104
Se -0.3698 -14.9105 -6.8759
Se 1.5616 -22.1021 -6.8415
Se 16.5996 14.0637 -6.7770
Se -14.0936 14.8160 -6.7578
Se 18.5310 6.8721 -6.7426
Se -12.1622 7.6245 -6.7233
Se 20.4624 -0.3194 -6.7081
Se -10.2308 0.4330 -6.6889
Se 22.3939 -7.5109 -6.6737
Se -8.2994 -6.7586 -6.6544
Se -6.3680 -13.9501 -6.6200
Se -4.4366 -21.1416 -6.5855
Se 8.6700 22.2156 -6.5556
Se 10.6014 15.0241 -6.5211
Se 12.5328 7.8326 -6.4866
Se -18.1604 8.5849 -6.4674
Se 14.4642 0.6410 -6.4522
Se -16.2290 1.3934 -6.4329
Se 16.3957 -6.5505 -6.4177
Se -14.2976 -5.7981 -6.3985
Se 18.3271 -13.7420 -6.3833
Se -12.3662 -12.9897 -6.3640
Se -10.4348 -20.1812 -6.3296
Se 2.6718 23.1761 -6.2996
Se 4.6032 15.9845 -6.2652
Se 6.5346 8.7930 -6.2307
Se 8.4660 1.6015 -6.1962
Se -22.2272 2.3538 -6.1770
Se 10.3974 -5.5900 -6.1618
Se -20.2958 -4.8377 -6.1425
Se 12.3289 -12.7816 -6.1273
Se -18.3644 -12.0292 -6.1081
Se -1.3950 16.9450 -6.0092
Se 0.5364 9.7534 -5.9748
Se 2.4678 2.5619 -5.9403
Se 4.3992 -4.6296 -5.9058
Se 6.3307 -11.8211 -5.8714
Se 8.2621 -19.0127 -5.8369
Se -7.3932 17.9054 -5.7533
Se -5.4618 10.7139 -5.7188
Se -3.5304 3.5224 -5.6844
Se -1.5990 -3.6692 -5.6499
Se 0.3325 -10.8607 -5.6154
Se 2.2639 -18.0522 -5.5810
Se -13.3914 18.8659 -5.4973
Se 19.2333 10.9220 -5.4821
Se -11.4600 11.6743 -5.4629
Se 21.1647 3.7304 -5.4477
Se -9.5286 4.4828 -5.4284
Se 23.0961 -3.4611 -5.4132
Se -7.5972 -2.7087 -5.3940
Se -5.6658 -9.9003 -5.3595
Se -3.7343 -17.0918 -5.3250
Se -1.8029 -24.2833 -5.2906
Se 11.3037 19.0739 -5.2606
Se 13.2351 11.8824 -5.2262
Se -17.4582 12.6348 -5.2069
Se 15.1665 4.6909 -5.1917
Se -15.5268 5.4432 -5.1725
Se 17.0979 -2.5006 -5.1573
Se -13.5954 -1.7483 -5.1380
Se 19.0293 -9.6922 -5.1228
Se -11.6640 -8.9398 -5.1036
Se -9.7325 -16.1313 -5.0691
Se 5.3055 20.0344 -5.0047
Se 7.2369 12.8429 -4.9702
Se 9.1683 5.6513 -4.9358
Se -21.5250 6.4037 -4.9165
Se 11.0997 -1.5402 -4.9013
Se -19.5936 -0.7878 -4.8821
Se 13.0311 -8.7317 -4.8669
Se -17.6622 -7.9794 -4.8476
Se 14.9625 -15.9233 -4.8324
Se -15.7308 -15.1709 -4.8132
Se -0.6927 20.9948 -4.7487
Se 1.2387 13.8033 -4.7143
Se 3.1701 6.6118 -4.6798
Se 5.1015 -0.5798 -4.6454
Se 7.0329 -7.7713 -4.6109
Se 8.9643 -14.9628 -4.5765
Se -6.6909 21.9553 -4.4928
Se -4.7595 14.7637 -4.4583
Se -2.8281 7.5722 -4.4239
Se -0.8967 0.3807 -4.3894
Se 1.0347 -6.8109 -4.3550
Se 2.9661 -14.0024 -4.3205
Se 4.8975 -21.1939 -4.2861
Se -10.7577 15.7242 -4.2024
Se 21.8670 7.7803 -4.1872
Se -8.8263 8.5326 -4.1679
Se 23.7984 0.5888 -4.1527
Se -6.8949 1.3411 -4.1335
Se -4.9635 -5.8504 -4.0990
Se -3.0321 -13.0419 -4.0646
Se -1.1007 -20.2335 -4.0301
Se 13.9373 15.9323 -3.9657
Se -16.7559 16.6846 -3.9464
Se 15.8687 8.7407 -3.9312
Se -14.8245 9.4931 -3.9120
Se 17.8002 1.5492 -3.8968
Se -12.8931 2.3016 -3.8775
Se 19.7316 -5.6423 -3.8623
Se -10.9617 -4.8900 -3.8431
Se -9.0303 -12.0815 -3.8086
Se -7.0989 -19.2730 -3.7742
Se 7.9391 16.8927 -3.7097
Se 9.8705 9.7012 -3.6753
Se -20.8227 10.4535 -3.6560
Se 11.8020 2.5096 -3.6408
Se -18.8913 3.2620 -3.6216
Se 13.7334 -4.6819 -3.6064
Se -16.9599 -3.9295 -3.5871
Se 15.6648 -11.8734 -3.5719
Se -15.0285 -11.1211 -3.5527
Se -13.0971 -18.3126 -3.5182
Se 1.9409 17.8531 -3.4538
Se 3.8723 10.6616 -3.4193
Se 5.8037 3.4701 -3.3849
Se 7.7352 -3.7214 -3.3504
Se -22.9581 -2.9691 -3.3312
Se 9.6666 -10.9130 -3.3160
Se -21.0267 -10.1606 -3.2967
Se 11.5980 -18.1045 -3.2815
Se -4.0573 18.8136 -3.1979
Se -2.1259 11.6220 -3.1634
Se -0.1945 4.4305 -3.1289
Se 1.7370 -2.7610 -3.0945
Se 3.6684 -9.9525 -3.0600
Se 5.5998 -17.1441 -3.0256
Se -10.0555 19.7740 -2.9419
Se -8.1241 12.5825 -2.9075
Se -6.1927 5.3910 -2.8730
Se -4.2613 -1.8006 -2.8385
Se -2.3298 -8.9921 -2.8041
Se -0.3984 -16.1836 -2.7696
Se 1.5330 -23.3751 -2.7352
Se 14.6396 19.9821 -2.7052
Se 16.5710 12.7906 -2.6708
Se -14.1223 13.5429 -2.6515
Se 18.5024 5.5990 -2.6363
Se -12.1909 6.3514 -2.6171
Se 20.4338 -1.5925 -2.6018
Se -10.2595 -0.8401 -2.5826
Se 22.3652 -8.7840 -2.5674
Se -8.3280 -8.0317 -2.5481
Se -6.3966 -15.2232 -2.5137
Se -4.4652 -22.4147 -2.4792
Se 8.6414 20.9425 -2.4493
Se 10.5728 13.7510 -2.4148
Se -20.1205 14.5034 -2.3956
Se 12.5042 6.5595 -2.3804
Se -18.1891 7.3118 -2.3611
Se 14.4356 -0.6320 -2.3459
Se -16.2577 0.1203 -2.3267
Se 16.3670 -7.8236 -2.3114
Se -14.3262 -7.0712 -2.2922
Se 18.2984 -15.0151 -2.2770
Se -12.3948 -14.2627 -2.2577
Se -10.4634 -21.4543 -2.2233
Se 2.6432 21.9030 -2.1933
Se 4.5746 14.7115 -2.1589
Se 6.5060 7.5199 -2.1244
Se 8.4374 0.3284 -2.0900
Se -22.2559 1.0808 -2.0707
Se 10.3688 -6.8631 -2.0555
Se -20.3245 -6.1108 -2.0363
Se 12.3002 -14.0547 -2.0210
Se -18.3930 -13.3023 -2.0018
Se -3.3550 22.8634 -1.9374
Se -1.4236 15.6719 -1.9029
Se 0.5078 8.4804 -1.8685
Se 2.4392 1.2888 -1.8340
Se 4.3706 -5.9027 -1.7995
Se 6.3020 -13.0942 -1.7651
Se 8.2334 -20.2857 -1.7306
Se -7.4218 16.6323 -1.6470
Se -5.4904 9.4408 -1.6125
Se -3.5590 2.2493 -1.5781
Se -1.6276 -4.9422 -1.5436
Se 0.3038 -12.1338 -1.5091
Se 2.2352 -19.3253 -1.4747
Se 17.2733 16.8404 -1.4103
Se -13.4200 17.5928 -1.3910
Se 19.2047 9.6489 -1.3758
Se -11.4886 10.4012 -1.3566
Se 21.1361 2.4574 -1.3414
Se -9.5572 3.2097 -1.3221
Se 23.0675 -4.7342 -1.3069
Se -7.6258 -3.9818 -1.2877
Se -5.6944 -11.1733 -1.2532
Se -3.7630 -18.3649 -1.2187
Se 11.2750 17.8009 -1.1543
Se 13.2065 10.6093 -1.1199
Se -17.4868 11.3617 -1.1006
Se 15.1379 3.4178 -1.0854
Se -15.5554 4.1702 -1.0662
Se 17.0693 -3.7737 -1.0510
Se -13.6240 -3.0214 -1.0317
Se 19.0007 -10.9653 -1.0165
Se -11.6926 -10.2129 -0.9973
Se -9.7612 -17.4044 -0.9628
Se 5.2768 18.7613 -0.8984
Se 7.2083 11.5698 -0.8639
Se 9.1397 4.3782 -0.8295
Se -21.5536 5.1306 -0.8102
Se 11.0711 -2.8133 -0.7950
Se -19.6222 -2.0609 -0.7758
Se 13.0025 -10.0048 -0.7606
Se -17.6908 -9.2525 -0.7413
Se 14.9339 -17.1963 -0.7261
Se -15.7594 -16.4440 -0.7069
Se -0.7214 19.7217 -0.6424
Se 1.2100 12.5302 -0.6080
Se 3.1415 5.3387 -0.5735
Se 5.0729 -1.8528 -0.5391
Se 7.0043 -9.0444 -0.5046
Se 8.9357 -16.2359 -0.4702
Se -6.7196 20.6822 -0.3865
Se -4.7882 13.4907 -0.3520
Se -2.8567 6.2991 -0.3176
Se -0.9253 -0.8924 -0.2831
Se 1.0061 -8.0839 -0.2487
Se 2.9375 -15.2755 -0.2142
Se 4.8689 -22.4670 -0.1798
Se 19.9069 13.6987 -0.1153
Se -10.7864 14.4511 -0.0961
Se 21.8383 6.5072 -0.0809
Se -8.8550 7.2596 -0.0616
Se 23.7697 -0.6843 -0.0464
Se -6.9235 0.0680 -0.0272
Se -4.9921 -7.1235 0.0073
Se -3.0607 -14.3150 0.0417
Se -1.1293 -21.5065 0.0762
Se 11.9773 21.8507 0.1062
Se 13.9087 14.6592 0.1406
Se -16.7846 15.4115 0.1599
Se 15.8401 7.4676 0.1751
Se -14.8532 8.2200 0.1943
Se 17.7715 0.2761 0.2095
Se -12.9217 1.0285 0.2288
Se 19.7029 -6.9154 0.2440
Se -10.9903 -6.1631 0.2632
Se -9.0589 -13.3546 0.2977
Se -7.1275 -20.5461 0.3321
Se 5.9791 22.8111 0.3621
Se 7.9105 15.6196 0.3966
Se 9.8419 8.4281 0.4310
Se -20.8514 9.1804 0.4503
Se 11.7733 1.2366 0.4655
Se -18.9199 1.9889 0.4847
Se 13.7047 -5.9550 0.4999
Se -16.9885 -5.2026 0.5192
Se 15.6361 -13.1465 0.5344
Se -15.0571 -12.3941 0.5536
Se -13.1257 -19.5857 0.5881
Se -0.0191 23.7716 0.6180
Se 1.9123 16.5801 0.6525
Se 3.8437 9.3885 0.6870
Se 5.7751 2.1970 0.7214
Se 7.7065 -4.9945 0.7559
Se -22.9867 -4.2422 0.7751
Se 9.6379 -12.1861 0.7903
Se -21.0553 -11.4337 0.8096
Se 11.5693 -19.3776 0.8248
Se -4.0859 17.5405 0.9084
Se -2.1545 10.3490 0.9429
Se -0.2231 3.1574 0.9774
Se 1.7083 -4.0341 1.0118
Se 3.6397 -11.2256 1.0463
Se 5.5711 -18.4171 1.0807
Se -10.0841 18.5009 1.1644
Se 22.5406 10.5570 1.1796
Se -8.1527 11.3094 1.1988
Se 24.4720 3.3655 1.2141
Se -6.2213 4.1179 1.2333
Se -4.2899 -3.0736 1.2678
Se -2.3585 -10.2652 1.3022
Se -0.4271 -17.4567 1.3367
Se 1.5043 -24.6482 1.3711
Se 14.6110 18.7090 1.4011
Se 16.5424 11.5175 1.4355
Se -14.1509 12.2698 1.4548
Se 18.4738 4.3260 1.4700
Se -12.2195 5.0783 1.4892
Se 20.4052 -2.8656 1.5045
Se -10.2881 -2.1132 1.5237
Se 22.3366 -10.0571 1.5389
Se -8.3567 -9.3047 1.5582
Se -6.4253 -16.4963 1.5926
Se -4.4939 -23.6878 1.6271
Se 8.6128 19.6695 1.6570
Se 10.5442 12.4779 1.6915
Se -20.1491 13.2303 1.7107
Se 12.4756 5.2864 1.7259
Se -18.2177 6.0388 1.7452
Se 14.4070 -1.9051 1.7604
Se -16.2863 -1.1528 1.7796
Se 16.3384 -9.0967 1.7949
Se -14.3549 -8.3443 1.8141
Se 18.2698 -16.2882 1.8293
Se -12.4235 -15.5358 1.8486
Se 2.6146 20.6299 1.9130
Se 4.5460 13.4384 1.9474
Se 6.4774 6.2468 1.9819
Se 8.4088 -0.9447 2.0163
Se -22.2845 -0.1923 2.0356
Se 10.3402 -8.1362 2.0508
Se -20.3531 -7.3839 2.0700
Se 12.2716 -15.3277 2.0853
Se -18.4217 -14.5754 2.1045
Se -3.3837 21.5903 2.1689
Se -1.4522 14.3988 2.2034
Se 0.4792 7.2073 2.2378
Se 2.4106 0.0158 2.2723
Se 4.3420 -7.1758 2.3067
Se 6.2734 -14.3673 2.3412
Se 8.2048 -21.5588 2.3757
Se -9.3819 22.5508 2.4249
Se -7.4504 15.3593 2.4593
Se -5.5190 8.1677 2.4938
Se -3.5876 0.9762 2.5282
Se -1.6562 -6.2153 2.5627
Se 0.2752 -13.4069 2.5971
Se 2.2066 -20.5984 2.6316
Se 17.2446 15.5673 2.6960
Se -13.4487 16.3197 2.7153
Se 19.1760 8.3758 2.7305
Se -11.5172 9.1282 2.7497
Se 21.1074 1.1843 2.7649
Se -9.5858 1.9366 2.7842
Se 23.0388 -6.0073 2.7994
Se -7.6544 -5.2549 2.8186
Se -5.7230 -12.4464 2.8531
Se -3.7916 -19.6379 2.8875
Se 11.2464 16.5278 2.9520
Se 13.1778 9.3362 2.9864
Se -17.5154 10.0886 3.0057
Se 15.1092 2.1447 3.0209
Se -15.5840 2.8971 3.0401
Se 17.0406 -5.0468 3.0553
Se -13.6526 -4.2945 3.0746
Se 18.9720 -12.2383 3.0898
Se -11.7212 -11.4860 3.1090
Se -9.7898 -18.6775 3.1435
Se 5.2482 17.4882 3.2079
Se 7.1796 10.2967 3.2424
Se 9.1110 3.1052 3.2768
Se -21.5822 3.8575 3.2961
Se 11.0424 -4.0864 3.3113
Se -19.6508 -3.3340 3.3305
Se 12.9738 -11.2779 3.3457
Se -17.7194 -10.5255 3.3650
Se 14.9053 -18.4694 3.3802
Se -15.7880 -17.7171 3.3994
Se -0.7500 18.4487 3.4639
Se 1.1814 11.2571 3.4983
Se 3.1128 4.0656 3.5328
Se 5.0442 -3.1259 3.5672
Se 6.9756 -10.3175 3.6017
Se 8.9071 -17.5090 3.6361
Se -6.7482 19.4091 3.7198
Se -4.8168 12.2176 3.7543
Se -2.8854 5.0260 3.7887
Se -0.9540 -2.1655 3.8232
Se 0.9774 -9.3570 3.8576
Se 2.9088 -16.5485 3.8921
Se 4.8403 -23.7401 3.9265
Se -12.7464 20.3695 3.9757
Se 19.8783 12.4256 3.9910
Se -10.8150 13.1780 4.0102
Se 21.8097 5.2341 4.0254
Se -8.8836 5.9865 4.0447
Se 23.7411 -1.9574 4.0599
Se -6.9522 -1.2050 4.0791
Se -5.0208 -8.3966 4.1136
Se -3.0894 -15.5881 4.1480
Se -1.1579 -22.7796 4.1825
Se 11.9487 20.5776 4.2124
Se 13.8801 13.3861 4.2469
Se -16.8132 14.1384 4.2661
Se 15.8115 6.1946 4.2814
Se -14.8818 6.9469 4.3006
Se 17.7429 -0.9970 4.3158
Se -12.9504 -0.2446 4.3351
Se 19.6743 -8.1885 4.3503
Se -11.0190 -7.4361 4.3695
Se -9.0876 -14.6277 4.4040
Se -7.1562 -21.8192 4.4384
Se 5.9505 21.5381 4.4684
Se 7.8819 14.3465 4.5028
Se 9.8133 7.1550 4.5373
Se -20.8800 7.9074 4.5565
Se 11.7447 -0.0365 4.5718
Se -18.9486 0.7158 4.5910
Se 13.6761 -7.2281 4.6062
Se -17.0172 -6.4757 4.6255
Se 15.6075 -14.4196 4.6407
Se -15.0858 -13.6672 4.6599
Se -0.0477 22.4985 4.7243
Se 1.8837 15.3070 4.7588
Se 3.8151 8.1154 4.7932
Se 5.7465 0.9239 4.8277
Se 7.6779 -6.2676 4.8622
Se -23.0154 -5.5153 4.8814
Se 9.6093 -13.4591 4.8966
Se 11.5407 -20.6507 4.9311
Se -6.0459 23.4589 4.9803
Se -4.1145 16.2674 5.0147
Se -2.1831 9.0759 5.0492
Se -0.2517 1.8844 5.0836
Se 1.6797 -5.3072 5.1181
Se 3.6111 -12.4987 5.1526
Se 5.5425 -19.6902 5.1870
Se -10.1127 17.2279 5.2707
Se 22.5119 9.2840 5.2859
Se -8.1813 10.0363 5.3051
Se -6.2499 2.8448 5.3396
Se -4.3185 -4.3467 5.3740
Se -2.3871 -11.5383 5.4085
Se -0.4557 -18.7298 5.4430
Se 14.5823 17.4359 5.5074
Se -16.1109 18.1883 5.5266
Se 16.5137 10.2444 5.5418
Se -14.1795 10.9968 5.5611
Se 18.4451 3.0529 5.5763
Se -12.2481 3.8052 5.5955
Se 20.3766 -4.1387 5.6107
Se -10.3167 -3.3863 5.6300
Se -8.3853 -10.5778 5.6644
Se -6.4539 -17.7693 5.6989
Se 8.5841 18.3964 5.7633
Se 10.5155 11.2048 5.7978
Se -20.1777 11.9572 5.8170
Se 12.4469 4.0133 5.8322
Se -18.2463 4.7657 5.8515
Se 14.3783 -3.1782 5.8667
Se -16.3149 -2.4259 5.8859
Se 16.3098 -10.3697 5.9011
Se -14.3835 -9.6174 5.9204
Se -12.4521 -16.8089 5.9548
Se 2.5859 19.3568 6.0193
Se 4.5173 12.1653 6.0537
Se 6.4487 4.9738 6.0882
Se 8.3801 -2.2178 6.1226
Se -22.3131 -1.4654 6.1419
Se 10.3116 -9.4093 6.1571
Se -20.3817 -8.6569 6.1763
Se 12.2430 -16.6008 6.1915
Se -3.4123 20.3173 6.2752
Se -1.4809 13.1257 6.3097
Se 0.4505 5.9342 6.3441
Se 2.3819 -1.2573 6.3786
Se 4.3133 -8.4489 6.4130
Se 6.2448 -15.6404 6.4475
Se -9.4105 21.2777 6.5312
Se -7.4791 14.0862 6.5656
Se -5.5477 6.8946 6.6001
Se -3.6163 -0.2969 6.6345
Se -1.6849 -7.4884 6.6690
Se 0.2466 -14.6799 6.7034
Se 2.1780 -21.8715 6.7379
Se 17.2160 14.2942 6.8023
Se -13.4773 15.0466 6.8216
Se 19.1474 7.1027 6.8368
Se -11.5459 7.8551 6.8560
Se 21.0788 -0.0888 6.8712
Se -9.6145 0.6636 6.8905
Se -7.6831 -6.5280 6.9249
Se -5.7516 -13.7195 6.9594
Se -3.8202 -20.9110 6.9938
Se 11.2178 15.2547 7.0583
Se 13.1492 8.0632 7.0927
Se -17.5441 8.8155 7.1120
Se 15.0806 0.8716 7.1272
Se -15.6127 1.6240 7.1464
Se 17.0120 -6.3199 7.1616
Se -13.6813 -5.5675 7.1809
Se 18.9434 -13.5114 7.1961
Se -11.7499 -12.7591 7.2153
Se -9.8184 -19.9506 7.2498
Se 3.2882 23.4067 7.2797
Se 5.2196 16.2151 7.3142
Se 7.1510 9.0236 7.3487
Se 9.0824 1.8321 7.3831
Se -21.6109 2.5844 7.4024
Se 11.0138 -5.3595 7.4176
Se -19.6795 -4.6071 7.4368
Se 12.9452 -12.5510 7.4520
Se -17.7481 -11.7986 7.4713
Se -0.7786 17.1756 7.5701
Se 1.1528 9.9840 7.6046
Se 3.0842 2.7925 7.6391
Se 5.0156 -4.3990 7.6735
Se 6.9470 -11.5905 7.7080
Se 8.8784 -18.7821 7.7424
Se -6.7768 18.1360 7.8261
Se -4.8454 10.9445 7.8605
Se -2.9140 3.7530 7.8950
Se -0.9826 -3.4386 7.9295
Se 0.9488 -10.6301 7.9639
Se 2.8802 -17.8216 7.9984
Se -12.7750 19.0965 8.0820
Se 19.8496 11.1526 8.0972
Se -10.8436 11.9049 8.1165
Se 21.7811 3.9610 8.1317
Se -8.9122 4.7134 8.1509
Se -6.9808 -2.4781 8.1854
Se -5.0494 -9.6697 8.2199
Se -3.1180 -16.8612 8.2543
Se 11.9200 19.3045 8.3187
Se 13.8514 12.1130 8.3532
Se -16.8418 12.8654 8.3724
Se 15.7829 4.9215 8.3876
Se -14.9104 5.6738 8.4069
Se 17.7143 -2.2701 8.4221
Se -12.9790 -1.5177 8.4413
Se 19.6457 -9.4616 8.4566
Se -11.0476 -8.7092 8.4758
Se -9.1162 -15.9007 8.5103
Se 5.9218 20.2650 8.5747
Se 7.8532 13.0734 8.6091
Se 9.7846 5.8819 8.6436
Se -20.9086 6.6343 8.6628
Se 11.7161 -1.3096 8.6780
Se -18.9772 -0.5572 8.6973
Se 13.6475 -8.5011 8.7125
Se -17.0458 -7.7488 8.7317
Se 15.5789 -15.6927 8.7470
Se -15.1144 -14.9403 8.7662
Se -0.0764 21.2254 8.8306
Se 1.8550 14.0339 8.8651
Se 3.7864 6.8424 8.8995
Se 5.7179 -0.3492 8.9340
Se 7.6493 -7.5407 8.9684
Se 9.5807 -14.7322 9.0029
Se -6.0746 22.1859 9.0866
Se -4.1432 14.9943 9.1210
Se -2.2118 7.8028 9.1555
Se -0.2804 0.6113 9.1899
Se 1.6511 -6.5803 9.2244
Se 3.5825 -13.7718 9.2588
Se 5.5139 -20.9633 9.2933
Se -10.1414 15.9548 9.3770
Se -8.2100 8.7632 9.4114
Se -6.2786 1.5717 9.4459
Se -4.3471 -5.6198 9.4803
Se -2.4157 -12.8113 9.5148
Se -0.4843 -20.0029 9.5492
Se 14.5537 16.1628 9.6137
Se 16.4851 8.9713 9.6481
Se -14.2082 9.7237 9.6674
Se 18.4165 1.7798 9.6826
Se -12.2768 2.5322 9.7018
Se 20.3479 -5.4117 9.7170
Se -10.3453 -4.6594 9.7363
Se -8.4139 -11.8509 9.7707
Se -6.4825 -19.0424 9.8052
Se 8.5555 17.1233 9.8696
Se 10.4869 9.9318 9.9041
Se -20.2064 10.6841 9.9233
Se 12.4183 2.7402 9.9385
Se -18.2750 3.4926 9.9578
Se 14.3497 -4.4513 9.9730
Se -16.3436 -3.6989 9.9922
Se 16.2811 -11.6428 10.0074
Se -14.4121 -10.8905 10.0267
Se -12.4807 -18.0820 10.0611
Se 2.5573 18.0837 10.1256
Se 4.4887 10.8922 10.1600
Se 6.4201 3.7007 10.1945
Se 8.3515 -3.4909 10.2289
Se -22.3418 -2.7385 10.2482
Se 10.2829 -10.6824 10.2634
Se -20.4103 -9.9300 10.2826
Se 12.2143 -17.8739 10.2978
Se -3.4409 19.0442 10.3815
Se -1.5095 11.8526 10.4160
Se 0.4219 4.6611 10.4504
Se 2.3533 -2.5304 10.4849
Se 4.2847 -9.7219 10.5193
Se 6.2161 -16.9135 10.5538
Se -9.4391 20.0046 10.6374
Se -7.5077 12.8131 10.6719
Se -5.5763 5.6216 10.7064
Se -3.6449 -1.5700 10.7408
Se -1.7135 -8.7615 10.7753
Se 0.2179 -15.9530 10.8097
Se 17.1874 13.0212 10.9086
Se -13.5059 13.7735 10.9278
Se 19.1188 5.8296 10.9431
Se -11.5745 6.5820 10.9623
Se 21.0502 -1.3619 10.9775
Se -9.6431 -0.6095 10.9968
Se -7.7117 -7.8011 11.0312
Se -5.7803 -14.9926 11.0657
Se 11.1892 13.9816 11.1646
Se 13.1206 6.7901 11.1990
Se -17.5727 7.5424 11.2182
Se 15.0520 -0.4015 11.2335
Se -15.6413 0.3509 11.2527
Se 16.9834 -7.5930 11.2679
Se -13.7099 -6.8406 11.2872
Se -11.7785 -14.0321 11.3216
Se 5.1909 14.9420 11.4205
Se 7.1224 7.7505 11.4550
Se 9.0538 0.5590 11.4894
Se -21.6395 1.3114 11.5086
Se 10.9852 -6.6325 11.5239
Se -19.7081 -5.8802 11.5431
Se 12.9166 -13.8241 11.5583
Se -17.7767 -13.0717 11.5776
Se -0.8073 15.9025 11.6764
Se 1.1242 8.7110 11.7109
Se 3.0556 1.5194 11.7454
Se 4.9870 -5.6721 11.7798
Se 6.9184 -12.8636 11.8143
Se 8.8498 -20.0552 11.8487
Se -6.8055 16.8629 11.9324
Se -4.8741 9.6714 11.9668
Se -2.9426 2.4799 12.0013
Se -1.0112 -4.7117 12.0358
Se 0.9202 -11.9032 12.0702
Se 2.8516 -19.0947 12.1047
Se -10.8723 10.6318 12.2228
Se -8.9408 3.4403 12.2572
Se -7.0094 -3.7512 12.2917
Se -5.0780 -10.9427 12.3262
Se -3.1466 -18.1343 12.3606
Se 11.8914 18.0314 12.4250
Se 13.8228 10.8399 12.4595
Se -16.8705 11.5923 12.4787
Se 15.7542 3.6484 12.4939
Se -14.9390 4.4008 12.5132
Se 17.6856 -3.5431 12.5284
Se -13.0076 -2.7908 12.5476
Se -11.0762 -9.9823 12.5821
Se -9.1448 -17.1738 12.6166
Se 5.8932 18.9919 12.6810
Se 7.8246 11.8004 12.7154
Se 9.7560 4.6088 12.7499
Se 11.6874 -2.5827 12.7843
Se -19.0058 -1.8303 12.8036
Se 13.6188 -9.7742 12.8188
Se -17.0744 -9.0219 12.8380
Se -0.1050 19.9523 12.9369
Se 1.8264 12.7608 12.9714
Se 3.7578 5.5693 13.0058
Se 5.6892 -1.6223 13.0403
Se 7.6206 -8.8138 13.0747
Se 9.5520 -16.0053 13.1092
Se -4.1718 13.7212 13.2273
Se -2.2404 6.5297 13.2618
Se -0.3090 -0.6618 13.2962
Se 1.6224 -7.8533 13.3307
Se 3.5538 -15.0449 13.3651
Se -10.1700 14.6817 13.4833
Se -8.2386 7.4902 13.5177
Se -6.3072 0.2986 13.5522
Se -4.3758 -6.8929 13.5866
Se -2.4444 -14.0844 13.6211
Se 14.5251 14.8898 13.7200
Se 16.4565 7.6982 13.7544
Se -14.2368 8.4506 13.7737
Se 18.3879 0.5067 13.7889
Se -12.3054 1.2591 13.8081
Se -10.3740 -5.9325 13.8426
Se -8.4426 -13.1240 13.8770
Se 8.5269 15.8502 13.9759
Se 10.4583 8.6587 14.0104
Se 12.3897 1.4672 14.0448
Se -18.3036 2.2195 14.0641
Se 14.3211 -5.7244 14.0793
Se -16.3722 -4.9720 14.0985
Se -14.4408 -12.1635 14.1330
Se 2.5287 16.8106 14.2319
Se 4.4601 9.6191 14.2663
Se 6.3915 2.4276 14.3008
Se 8.3229 -4.7639 14.3352
Se 10.2543 -11.9555 14.3697
Se -3.4695 17.7711 14.4878
Se -1.5381 10.5796 14.5223
Se 0.3933 3.3880 14.5567
Se 2.3247 -3.8035 14.5912
Se 4.2561 -10.9950 14.6256
Se 6.1875 -18.1866 14.6601
Se -7.5363 11.5400 14.7782
Se -5.6049 4.3485 14.8127
Se -3.6735 -2.8431 14.8471
Se -1.7421 -10.0346 14.8816
Se 0.1893 -17.2261 14.9160
Se -13.5345 12.5004 15.0341
Se 19.0901 4.5566 15.0494
Se -11.6031 5.3089 15.0686
Se -9.6717 -1.8826 15.1031
Se -7.7403 -9.0741 15.1375
Se -5.8089 -16.2657 15.1720
Se 11.1605 12.7085 15.2708
Se 13.0919 5.5170 15.3053
Se -17.6013 6.2694 15.3245
Se 15.0233 -1.6745 15.3398
Se -15.6699 -0.9222 15.3590
Se 16.9547 -8.8661 15.3742
Se -13.7385 -8.1137 15.3935
Se -11.8071 -15.3052 15.4279
Se 5.1623 13.6690 15.5268
Se 7.0937 6.4774 15.5612
Se 9.0251 -0.7141 15.5957
Se 10.9565 -7.9056 15.6302
Se -0.8359 14.6294 15.7827
Se 1.0955 7.4379 15.8172
Se 3.0269 0.2463 15.8516
Se 4.9583 -6.9452 15.8861
Se 6.8897 -14.1367 15.9206
Se -6.8341 15.5898 16.0387
Se -4.9027 8.3983 16.0731
Se -2.9713 1.2068 16.1076
Se -1.0399 -5.9847 16.1420
Se 0.8915 -13.1763 16.1765
Se -10.9009 9.3588 16.3291
Se -8.9695 2.1672 16.3635
Se -7.0381 -5.0243 16.3980
Se -5.1067 -12.2158 16.4324
Se 13.7942 9.5668 16.5658
Se 15.7256 2.3753 16.6002
Se -14.9677 3.1277 16.6195
Se 17.6570 -4.8162 16.6347
Se -13.0363 -4.0639 16.6539
Se -11.1049 -11.2554 16.6884
Se 7.7960 10.5273 16.8217
Se 9.7274 3.3358 16.8562
Se 11.6588 -3.8558 16.8906
Se 13.5902 -11.0473 16.9251
Se 1.7978 11.4877 17.0777
Se 3.7292 4.2962 17.1121
Se 5.6606 -2.8953 17.1466
Se 7.5920 -10.0869 17.1810
Se -4.2004 12.4482 17.3336
Se -2.2690 5.2566 17.3681
Se -0.3376 -1.9349 17.4025
Se 1.5938 -9.1264 17.4370
Se 3.5252 -16.3180 17.4714
Se -10.1986 13.4086 17.5896
Se -8.2672 6.2171 17.6240
Se -6.3358 -0.9745 17.6585
Se -4.4044 -8.1660 17.6929
Se -2.4730 -15.3575 17.7274
Se -14.2654 7.1775 17.8800
Se -12.3340 -0.0140 17.9144
Se -10.4026 -7.2055 17.9489
Se -8.4712 -14.3971 17.9833
Se 8.4982 14.5771 18.0822
Se 10.4296 7.3856 18.1167
Se 12.3610 0.1941 18.1511
Se 14.2925 -6.9975 18.1856
Se 2.5000 15.5376 18.3381
Se 4.4314 8.3460 18.3726
Se 6.3628 1.1545 18.4071
Se 8.2942 -6.0370 18.4415
Se 10.2257 -13.2285 18.4760
Se -1.5668 9.3065 18.6285
Se 0.3646 2.1149 18.6630
Se 2.2960 -5.0766 18.6975
Se 4.2275 -12.2681 18.7319
Se -7.5650 10.2669 18.8845
Se -5.6336 3.0754 18.9189
Se -3.7022 -4.1161 18.9534
Se -1.7707 -11.3077 18.9879
Se -11.6318 4.0358 19.1749
Se -9.7004 -3.1557 19.2093
Se -7.7690 -10.3472 19.2438
Se 13.0633 4.2439 19.4116
Se 14.9947 -2.9476 19.4460
Se 5.1337 12.3959 19.6331
Se 7.0651 5.2044 19.6675
Se 8.9965 -1.9872 19.7020
Se 10.9279 -9.1787 19.7364
Se -0.8645 13.3563 19.8890
Se 1.0669 6.1648 19.9235
Se 2.9983 -1.0267 19.9579
Se 4.9297 -8.2183 19.9924
Se -4.9313 7.1252 20.1794
Se -2.9999 -0.0663 20.2139
Se -1.0685 -7.2578 20.2483
Se 0.8629 -14.4493 20.2828
Se -10.9295 8.0857 20.4354
Se -8.9981 0.8941 20.4698
Se -7.0667 -6.2974 20.5043
Se 7.7673 9.2542 20.9280
Se 9.6988 2.0627 20.9625
Se 11.6302 -5.1289 20.9969
Se 1.7691 10.2146 21.1840
Se 3.7005 3.0231 21.2184
Se 5.6320 -4.1684 21.2529
Se -4.2291 11.1751 21.4399
Se -2.2977 3.9836 21.4744
Se -0.3662 -3.2080 21.5088
Se 1.5652 -10.3995 21.5433
Se -8.2959 4.9440 21.7303
Se -6.3644 -2.2475 21.7648
Se -4.4330 -9.4391 21.7992
Se 4.4028 7.0730 22.4789
Se 6.3342 -0.1186 22.5133
Se -1.5954 8.0334 22.7348
Se 0.3360 0.8419 22.7693
Se 2.2674 -6.3497 22.8038
Se -5.6622 1.8023 23.0252
Se -3.7308 -5.3892 23.0597
Se 1.0383 4.8917 24.0298
Se 2.9697 -2.2998 24.0642
Se -3.0285 -1.3394 24.3202
