1448
Model zinc-blende CdSe nanocrystal CdSe-QD-D (spherical cut, no ligands), angstrom
Cd -5.8426 -2.0436 -19.9443
Cd -3.0946 -5.3420 -19.7163
Cd -1.7588 4.1780 -19.6930
Cd -0.3466 -8.6404 -19.4883
Cd 0.9893 0.8796 -19.4650
Cd 3.7373 -2.4188 -19.2370
Cd 5.0731 7.1013 -19.2137
Cd 6.4853 -5.7172 -19.0090
Cd 7.8211 3.8028 -18.9857
Cd -8.9541 -4.5232 -18.3154
Cd -7.6183 4.9968 -18.2920
Cd -6.2060 -7.8217 -18.0874
Cd -4.8702 1.6984 -18.0641
Cd -3.4580 -11.1201 -17.8594
Cd -2.1222 -1.6000 -17.8361
Cd -0.7864 7.9200 -17.8127
Cd 0.6259 -4.8984 -17.6081
Cd 1.9617 4.6216 -17.5847
Cd 3.3739 -8.1969 -17.3801
Cd 4.7097 1.3232 -17.3567
Cd 6.0455 10.8432 -17.3334
Cd 7.4577 -1.9752 -17.1288
Cd 8.7936 7.5448 -17.1054
Cd 10.2058 -5.2736 -16.9008
Cd 11.5416 4.2464 -16.8774
Cd -10.7297 2.5171 -16.6631
Cd -7.9817 -0.7813 -16.4351
Cd -6.6458 8.7387 -16.4118
Cd -5.2336 -4.0797 -16.2071
Cd -3.8978 5.4403 -16.1838
Cd -2.4856 -7.3781 -15.9791
Cd -1.1498 2.1419 -15.9558
Cd 0.1860 11.6620 -15.9325
Cd 0.2625 -10.6765 -15.7511
Cd 1.5983 -1.1565 -15.7278
Cd 2.9341 8.3636 -15.7045
Cd 3.0105 -13.9749 -15.5231
Cd 4.3463 -4.4549 -15.4998
Cd 5.6821 5.0651 -15.4765
Cd 7.0943 -7.7533 -15.2718
Cd 8.4302 1.7667 -15.2485
Cd 9.7660 11.2868 -15.2252
Cd 9.8424 -11.0517 -15.0438
Cd -13.8411 0.0375 -15.0342
Cd 11.1782 -1.5317 -15.0205
Cd 12.5140 7.9884 -14.9972
Cd -11.0931 -3.2609 -14.8062
Cd 13.9262 -4.8301 -14.7925
Cd -9.7573 6.2591 -14.7829
Cd -8.3451 -6.5594 -14.5782
Cd -7.0092 2.9607 -14.5549
Cd -5.6734 12.4807 -14.5315
Cd -5.5970 -9.8578 -14.3502
Cd -4.2612 -0.3377 -14.3269
Cd -2.9254 9.1823 -14.3035
Cd -2.8490 -13.1562 -14.1222
Cd -1.5132 -3.6361 -14.0989
Cd -0.1774 5.8839 -14.0756
Cd 1.1585 15.4039 -14.0522
Cd 1.2349 -6.9346 -13.8709
Cd 2.5707 2.5855 -13.8476
Cd 3.9065 12.1055 -13.8242
Cd 3.9829 -10.2330 -13.6429
Cd 5.3187 -0.7129 -13.6196
Cd 6.6545 8.8071 -13.5962
Cd 6.7309 -13.5314 -13.4149
Cd 8.0668 -4.0113 -13.3916
Cd 9.4026 5.5087 -13.3682
Cd -14.2045 -5.7406 -13.1773
Cd 10.8148 -7.3098 -13.1636
Cd -12.8687 3.7794 -13.1539
Cd 12.1506 2.2103 -13.1403
Cd -11.4565 -9.0390 -12.9493
Cd -10.1207 0.4810 -12.9259
Cd 14.8986 -1.0881 -12.9123
Cd -8.7849 10.0010 -12.9026
Cd -8.7085 -12.3374 -12.7213
Cd -7.3726 -2.8174 -12.6979
Cd -6.0368 6.7026 -12.6746
Cd -4.7010 16.2227 -12.6513
Cd -5.9604 -15.6358 -12.4933
Cd -4.6246 -6.1158 -12.4699
Cd -3.2888 3.4042 -12.4466
Cd -1.9530 12.9243 -12.4233
Cd -1.8766 -9.4142 -12.2419
Cd -0.5408 0.1058 -12.2186
Cd 0.7951 9.6258 -12.1953
Cd 0.8715 -12.7126 -12.0140
Cd 2.2073 -3.1926 -11.9906
Cd 3.5431 6.3274 -11.9673
Cd 4.8789 15.8475 -11.9440
Cd 3.6195 -16.0110 -11.7860
Cd 4.9553 -6.4910 -11.7626
Cd 6.2911 3.0290 -11.7393
Cd 7.6269 12.5491 -11.7160
Cd 7.7034 -9.7894 -11.5346
Cd -15.9802 1.2998 -11.5250
Cd 9.0392 -0.2694 -11.5113
Cd 10.3750 9.2506 -11.4880
Cd 10.4514 -13.0878 -11.3066
Cd -13.2321 -1.9987 -11.2970
Cd 11.7872 -3.5678 -11.2833
Cd -11.8963 7.5214 -11.2737
Cd 13.1230 5.9522 -11.2600
Cd -10.4841 -5.2971 -11.0690
Cd 14.5352 -6.8662 -11.0553
Cd -9.1483 4.2230 -11.0457
Cd 15.8711 2.6538 -11.0320
Cd -7.8124 13.7430 -11.0224
Cd -7.7360 -8.5955 -10.8410
Cd -6.4002 0.9246 -10.8177
Cd -5.0644 10.4446 -10.7944
Cd -4.9880 -11.8939 -10.6130
Cd -3.6522 -2.3739 -10.5897
Cd -2.3164 7.1462 -10.5664
Cd -0.9806 16.6662 -10.5430
Cd -2.2400 -15.1923 -10.3850
Cd -0.9042 -5.6723 -10.3617
Cd 0.4317 3.8478 -10.3384
Cd 1.7675 13.3678 -10.3150
Cd 0.5081 -18.4907 -10.1570
Cd 1.8439 -8.9707 -10.1337
Cd 3.1797 0.5494 -10.1104
Cd 4.5155 10.0694 -10.0871
Cd 4.5919 -12.2691 -9.9057
Cd 5.9277 -2.7491 -9.8824
Cd 7.2635 6.7710 -9.8591
Cd 8.5994 16.2910 -9.8357
Cd 7.3400 -15.5675 -9.6777
Cd -16.3435 -4.4783 -9.6681
Cd 8.6758 -6.0475 -9.6544
Cd -15.0077 5.0417 -9.6447
Cd 10.0116 3.4726 -9.6311
Cd 11.3474 12.9926 -9.6077
Cd -13.5955 -7.7767 -9.4401
Cd 11.4238 -9.3459 -9.4264
Cd -12.2597 1.7433 -9.4167
Cd 12.7596 0.1742 -9.4031
Cd -10.9239 11.2633 -9.3934
Cd 14.0954 9.6942 -9.3797
Cd -10.8475 -11.0751 -9.2121
Cd 14.1718 -12.6443 -9.1984
Cd -9.5117 -1.5551 -9.1887
Cd 15.5077 -3.1242 -9.1751
Cd -8.1758 7.9649 -9.1654
Cd 16.8435 6.3958 -9.1518
Cd -6.8400 17.4850 -9.1421
Cd -8.0994 -14.3736 -8.9841
Cd -6.7636 -4.8535 -8.9608
Cd 18.2557 -6.4227 -8.9471
Cd -5.4278 4.6665 -8.9374
Cd -4.0920 14.1866 -8.9141
Cd -5.3514 -17.6720 -8.7561
Cd -4.0156 -8.1519 -8.7328
Cd -2.6798 1.3681 -8.7094
Cd -1.3440 10.8881 -8.6861
Cd -1.2676 -11.4503 -8.5048
Cd 0.0683 -1.9303 -8.4814
Cd 1.4041 7.5897 -8.4581
Cd 2.7399 17.1098 -8.4348
Cd 1.4805 -14.7487 -8.2768
Cd 2.8163 -5.2287 -8.2534
Cd 4.1521 4.2913 -8.2301
Cd 5.4879 13.8114 -8.2068
Cd 4.2285 -18.0472 -8.0488
Cd 5.5643 -8.5271 -8.0255
Cd -18.1192 2.5620 -8.0158
Cd 6.9001 0.9929 -8.0021
Cd 8.2360 10.5129 -7.9788
Cd -16.7069 -10.2564 -7.8111
Cd 8.3124 -11.8255 -7.7975
Cd -15.3711 -0.7364 -7.7878
Cd 9.6482 -2.3055 -7.7741
Cd -14.0353 8.7837 -7.7645
Cd 10.9840 7.2145 -7.7508
Cd -13.9589 -13.5548 -7.5831
Cd 11.0604 -15.1239 -7.5695
Cd -12.6231 -4.0348 -7.5598
Cd 12.3962 -5.6039 -7.5461
Cd -11.2873 5.4853 -7.5365
Cd 13.7320 3.9161 -7.5228
Cd -9.9515 15.0053 -7.5132
Cd -9.8751 -7.3332 -7.3318
Cd 15.1443 -8.9023 -7.3181
Cd -8.5392 2.1869 -7.3085
Cd 16.4801 0.6177 -7.2948
Cd -7.2034 11.7069 -7.2852
Cd -7.1270 -10.6316 -7.1038
Cd -5.7912 -1.1116 -7.0805
Cd 19.2281 -2.6807 -7.0668
Cd -4.4554 8.4085 -7.0572
Cd -3.1196 17.9285 -7.0339
Cd -4.3790 -13.9300 -6.8758
Cd -3.0432 -4.4100 -6.8525
Cd -1.7074 5.1101 -6.8292
Cd -0.3715 14.6301 -6.8059
Cd -1.6310 -17.2284 -6.6478
Cd -0.2951 -7.7084 -6.6245
Cd 1.0407 1.8117 -6.6012
Cd 2.3765 11.3317 -6.5779
Cd 2.4529 -11.0068 -6.3965
Cd 3.7887 -1.4868 -6.3732
Cd 5.1245 8.0333 -6.3499
Cd 6.4603 17.5533 -6.3265
Cd 5.2009 -14.3052 -6.1685
Cd -18.4826 -3.2160 -6.1589
Cd 6.5367 -4.7852 -6.1452
Cd -17.1468 6.3040 -6.1356
Cd 7.8726 4.7349 -6.1219
Cd 9.2084 14.2549 -6.0986
Cd 7.9490 -17.6036 -5.9405
Cd -15.7345 -6.5144 -5.9309
Cd 9.2848 -8.0836 -5.9172
Cd -14.3987 3.0056 -5.9076
Cd 10.6206 1.4365 -5.8939
Cd -13.0629 12.5256 -5.8842
Cd 11.9564 10.9565 -5.8706
Cd -12.9865 -9.8128 -5.7029
Cd 12.0328 -11.3820 -5.6892
Cd -11.6507 -0.2928 -5.6796
Cd 13.3686 -1.8620 -5.6659
Cd -10.3149 9.2272 -5.6562
Cd 14.7045 7.6581 -5.6426
Cd -10.2385 -13.1113 -5.4749
Cd -8.9026 -3.5912 -5.4516
Cd 16.1167 -5.1604 -5.4379
Cd -7.5668 5.9288 -5.4282
Cd 17.4525 4.3597 -5.4146
Cd -6.2310 15.4488 -5.4049
Cd -7.4904 -16.4097 -5.2469
Cd -6.1546 -6.8896 -5.2236
Cd 18.8647 -8.4588 -5.2099
Cd -4.8188 2.6304 -5.2002
Cd 20.2005 1.0613 -5.1866
Cd -3.4830 12.1504 -5.1769
Cd -4.7424 -19.7081 -5.0189
Cd -3.4066 -10.1880 -4.9956
Cd -2.0708 -0.6680 -4.9723
Cd -0.7349 8.8520 -4.9489
Cd 0.6009 18.3721 -4.9256
Cd -0.6585 -13.4865 -4.7676
Cd 0.6773 -3.9664 -4.7443
Cd 2.0131 5.5536 -4.7209
Cd 3.3489 15.0736 -4.6976
Cd 2.0895 -16.7849 -4.5396
Cd 3.4253 -7.2648 -4.5163
Cd -20.2582 3.8243 -4.5066
Cd 4.7611 2.2552 -4.4929
Cd 6.0969 11.7752 -4.4696
Cd 4.8375 -20.0833 -4.3116
Cd -18.8460 -8.9941 -4.3019
Cd 6.1734 -10.5632 -4.2883
Cd -17.5102 0.5259 -4.2786
Cd 7.5092 -1.0432 -4.2649
Cd -16.1743 10.0460 -4.2553
Cd 8.8450 8.4768 -4.2416
Cd 10.1808 17.9969 -4.2183
Cd -16.0979 -12.2925 -4.0740
Cd 8.9214 -13.8617 -4.0603
Cd -14.7621 -2.7725 -4.0506
Cd 10.2572 -4.3416 -4.0370
Cd -13.4263 6.7476 -4.0273
Cd 11.5930 5.1784 -4.0136
Cd -12.0905 16.2676 -4.0040
Cd 12.9288 14.6985 -3.9903
Cd -13.3499 -15.5909 -3.8460
Cd 11.6694 -17.1601 -3.8323
Cd -12.0141 -6.0709 -3.8226
Cd 13.0052 -7.6400 -3.8090
Cd -10.6783 3.4491 -3.7993
Cd 14.3411 1.8800 -3.7856
Cd -9.3425 12.9692 -3.7760
Cd 15.6769 11.4000 -3.7623
Cd -9.2660 -9.3693 -3.5946
Cd 15.7533 -10.9384 -3.5810
Cd -7.9302 0.1507 -3.5713
Cd 17.0891 -1.4184 -3.5576
Cd -6.5944 9.6708 -3.5480
Cd 18.4249 8.1016 -3.5343
Cd -5.2586 19.1908 -3.5247
Cd -6.5180 -12.6677 -3.3666
Cd -5.1822 -3.1477 -3.3433
Cd 19.8371 -4.7168 -3.3296
Cd -3.8464 6.3724 -3.3200
Cd -2.5106 15.8924 -3.2967
Cd -3.7700 -15.9661 -3.1386
Cd -2.4342 -6.4461 -3.1153
Cd -1.0983 3.0739 -3.0920
Cd 0.2375 12.5940 -3.0687
Cd -1.0219 -19.2645 -2.9107
Cd 0.3139 -9.7445 -2.8873
Cd 1.6497 -0.2245 -2.8640
Cd 2.9855 9.2956 -2.8407
Cd 4.3213 18.8156 -2.8174
Cd 3.0619 -13.0429 -2.6593
Cd -20.6216 -1.9537 -2.6497
Cd 4.3977 -3.5229 -2.6360
Cd -19.2858 7.5663 -2.6264
Cd 5.7335 5.9972 -2.6127
Cd 7.0694 15.5172 -2.5894
Cd 5.8100 -16.3413 -2.4313
Cd -17.8736 -5.2521 -2.4217
Cd 7.1458 -6.8213 -2.4080
Cd -16.5377 4.2679 -2.3984
Cd 8.4816 2.6988 -2.3847
Cd -15.2019 13.7879 -2.3750
Cd 9.8174 12.2188 -2.3614
Cd -15.1255 -8.5506 -2.1937
Cd 9.8938 -10.1197 -2.1800
Cd -13.7897 0.9695 -2.1704
Cd 11.2296 -0.5997 -2.1567
Cd -12.4539 10.4895 -2.1471
Cd 12.5654 8.9204 -2.1334
Cd -12.3775 -11.8490 -1.9657
Cd 12.6418 -13.4181 -1.9520
Cd -11.0417 -2.3289 -1.9424
Cd 13.9777 -3.8981 -1.9287
Cd -9.7059 7.1911 -1.9191
Cd 15.3135 5.6220 -1.9054
Cd -8.3700 16.7111 -1.8957
Cd -9.6294 -15.1474 -1.7377
Cd -8.2936 -5.6273 -1.7144
Cd 16.7257 -7.1965 -1.7007
Cd -6.9578 3.8927 -1.6911
Cd 18.0615 2.3236 -1.6774
Cd -5.6220 13.4127 -1.6677
Cd -6.8814 -18.4458 -1.5097
Cd -5.5456 -8.9258 -1.4864
Cd -4.2098 0.5943 -1.4631
Cd 20.8095 -0.9749 -1.4494
Cd -2.8740 10.1143 -1.4397
Cd -1.5382 19.6344 -1.4164
Cd -2.7976 -12.2242 -1.2584
Cd -1.4617 -2.7041 -1.2351
Cd -0.1259 6.8159 -1.2117
Cd 1.2099 16.3359 -1.1884
Cd -0.0495 -15.5226 -1.0304
Cd 1.2863 -6.0025 -1.0071
Cd 2.6221 3.5175 -0.9838
Cd 3.9579 13.0375 -0.9604
Cd 2.6985 -18.8210 -0.8024
Cd 4.0343 -9.3009 -0.7791
Cd -19.6492 1.7882 -0.7694
Cd 5.3701 0.2191 -0.7558
Cd 6.7060 9.7391 -0.7324
Cd 8.0418 19.2592 -0.7091
Cd -18.2370 -11.0302 -0.5648
Cd 6.7824 -12.5994 -0.5511
Cd -16.9011 -1.5102 -0.5414
Cd 8.1182 -3.0793 -0.5278
Cd -15.5653 8.0099 -0.5181
Cd 9.4540 6.4407 -0.5044
Cd 10.7898 15.9607 -0.4811
Cd -15.4889 -14.3286 -0.3368
Cd 9.5304 -15.8978 -0.3231
Cd -14.1531 -4.8086 -0.3134
Cd 10.8662 -6.3777 -0.2998
Cd -12.8173 4.7114 -0.2901
Cd 12.2020 3.1423 -0.2764
Cd -11.4815 14.2315 -0.2668
Cd 13.5378 12.6623 -0.2531
Cd -11.4051 -8.1070 -0.0855
Cd 13.6143 -9.6761 -0.0718
Cd -10.0693 1.4130 -0.0621
Cd 14.9501 -0.1561 -0.0485
Cd -8.7334 10.9331 -0.0388
Cd 16.2859 9.3639 -0.0251
Cd -8.6570 -11.4054 0.1425
Cd 16.3623 -12.9746 0.1562
Cd -7.3212 -1.8854 0.1659
Cd 17.6981 -3.4545 0.1795
Cd -5.9854 7.6347 0.1892
Cd 19.0339 6.0655 0.2029
Cd -4.6496 17.1547 0.2125
Cd -5.9090 -14.7038 0.3705
Cd -4.5732 -5.1838 0.3939
Cd -3.2374 4.3362 0.4172
Cd -1.9016 13.8563 0.4405
Cd -3.1610 -18.0022 0.5985
Cd -1.8251 -8.4822 0.6219
Cd -0.4893 1.0378 0.6452
Cd 0.8465 10.5579 0.6685
Cd 2.1823 20.0779 0.6918
Cd -0.4129 -21.3006 0.8265
Cd 0.9229 -11.7806 0.8499
Cd 2.2587 -2.2606 0.8732
Cd 3.5945 7.2595 0.8965
Cd 4.9303 16.7795 0.9198
Cd 3.6709 -15.0790 1.0778
Cd -20.0126 -3.9898 1.0875
Cd 5.0067 -5.5590 1.1012
Cd -18.6768 5.5302 1.1108
Cd 6.3426 3.9610 1.1245
Cd 7.6784 13.4811 1.1478
Cd 6.4190 -18.3774 1.3058
Cd -17.2645 -7.2883 1.3155
Cd 7.7548 -8.8574 1.3292
Cd -15.9287 2.2318 1.3388
Cd 9.0906 0.6626 1.3525
Cd -14.5929 11.7518 1.3621
Cd 10.4264 10.1827 1.3758
Cd -14.5165 -10.5867 1.5435
Cd 10.5028 -12.1558 1.5572
Cd -13.1807 -1.0666 1.5668
Cd 11.8386 -2.6358 1.5805
Cd -11.8449 8.4534 1.5901
Cd 13.1744 6.8843 1.6038
Cd -10.5091 17.9734 1.6135
Cd -11.7685 -13.8851 1.7715
Cd 13.2509 -15.4542 1.7852
Cd -10.4327 -4.3650 1.7948
Cd 14.5867 -5.9342 1.8085
Cd -9.0968 5.1550 1.8181
Cd 15.9225 3.5858 1.8318
Cd -7.7610 14.6750 1.8415
Cd -9.0204 -17.1835 1.9995
Cd -7.6846 -7.6635 2.0228
Cd 17.3347 -9.2326 2.0365
Cd -6.3488 1.8566 2.0461
Cd 18.6705 0.2874 2.0598
Cd -5.0130 11.3766 2.0694
Cd -3.6772 20.8966 2.0928
Cd -4.9366 -10.9619 2.2508
Cd -3.6008 -1.4418 2.2741
Cd -2.2650 8.0782 2.2974
Cd -0.9291 17.5982 2.3208
Cd -2.1885 -14.2603 2.4788
Cd -0.8527 -4.7402 2.5021
Cd 0.4831 4.7798 2.5254
Cd 1.8189 14.2998 2.5488
Cd 0.5595 -17.5587 2.7068
Cd 1.8953 -8.0387 2.7301
Cd 3.2311 1.4814 2.7534
Cd 4.5669 11.0014 2.7768
Cd 3.3075 -20.8571 2.9348
Cd 4.6433 -11.3371 2.9581
Cd -19.0402 -0.2479 2.9677
Cd 5.9792 -1.8170 2.9814
Cd -17.7043 9.2721 2.9911
Cd 7.3150 7.7030 3.0047
Cd 8.6508 17.2230 3.0281
Cd 7.3914 -14.6355 3.1861
Cd -16.2921 -3.5463 3.1957
Cd 8.7272 -5.1154 3.2094
Cd -14.9563 5.9737 3.2191
Cd 10.0630 4.4046 3.2327
Cd -13.6205 15.4938 3.2424
Cd 11.3988 13.9246 3.2561
Cd 10.1394 -17.9339 3.4141
Cd -13.5441 -6.8447 3.4237
Cd 11.4752 -8.4139 3.4374
Cd -12.2083 2.6753 3.4471
Cd 12.8110 1.1062 3.4607
Cd -10.8725 12.1954 3.4704
Cd 14.1469 10.6262 3.4841
Cd -10.7961 -10.1431 3.6517
Cd 14.2233 -11.7123 3.6654
Cd -9.4602 -0.6231 3.6751
Cd 15.5591 -2.1922 3.6887
Cd -8.1244 8.8969 3.6984
Cd 16.8949 7.3278 3.7121
Cd -6.7886 18.4170 3.7217
Cd -8.0480 -13.4415 3.8797
Cd -6.7122 -3.9215 3.9031
Cd 18.3071 -5.4906 3.9167
Cd -5.3764 5.5985 3.9264
Cd 19.6429 4.0294 3.9400
Cd -4.0406 15.1186 3.9497
Cd -5.3000 -16.7399 4.1077
Cd -3.9642 -7.2199 4.1310
Cd -2.6284 2.3001 4.1544
Cd -1.2925 11.8202 4.1777
Cd -2.5519 -20.0384 4.3357
Cd -1.2161 -10.5183 4.3590
Cd 0.1197 -0.9983 4.3824
Cd 1.4555 8.5218 4.4057
Cd 2.7913 18.0418 4.4290
Cd 1.5319 -13.8167 4.5870
Cd 2.8677 -4.2967 4.6104
Cd 4.2035 5.2233 4.6337
Cd 5.5393 14.7434 4.6570
Cd 4.2799 -17.1151 4.8150
Cd -19.4036 -6.0260 4.8247
Cd 5.6158 -7.5951 4.8384
Cd -18.0677 3.4941 4.8480
Cd 6.9516 1.9249 4.8617
Cd 8.2874 11.4450 4.8850
Cd -16.6555 -9.3244 5.0527
Cd 8.3638 -10.8935 5.0663
Cd -15.3197 0.1957 5.0760
Cd 9.6996 -1.3735 5.0897
Cd -13.9839 9.7157 5.0993
Cd 11.0354 8.1466 5.1130
Cd -13.9075 -12.6228 5.2807
Cd 11.1118 -14.1919 5.2943
Cd -12.5717 -3.1028 5.3040
Cd 12.4476 -4.6719 5.3177
Cd -11.2359 6.4173 5.3273
Cd 13.7835 4.8481 5.3410
Cd -9.9000 15.9373 5.3506
Cd -11.1595 -15.9212 5.5087
Cd -9.8236 -6.4012 5.5320
Cd 15.1957 -7.9703 5.5457
Cd -8.4878 3.1189 5.5553
Cd 16.5315 1.5497 5.5690
Cd -7.1520 12.6389 5.5786
Cd -7.0756 -9.6996 5.7600
Cd -5.7398 -0.1795 5.7833
Cd 19.2795 -1.7487 5.7970
Cd -4.4040 9.3405 5.8066
Cd -3.0682 18.8605 5.8300
Cd -4.3276 -12.9980 5.9880
Cd -2.9918 -3.4779 6.0113
Cd -1.6559 6.0421 6.0346
Cd -0.3201 15.5621 6.0579
Cd -1.5795 -16.2964 6.2160
Cd -0.2437 -6.7764 6.2393
Cd 1.0921 2.7437 6.2626
Cd 2.4279 12.2637 6.2859
Cd 1.1685 -19.5948 6.4440
Cd 2.5043 -10.0748 6.4673
Cd 3.8401 -0.5547 6.4906
Cd 5.1759 8.9653 6.5139
Cd 6.5118 18.4853 6.5373
Cd 5.2524 -13.3732 6.6953
Cd -18.4311 -2.2840 6.7049
Cd 6.5882 -3.8531 6.7186
Cd -17.0953 7.2360 6.7283
Cd 7.9240 5.6669 6.7419
Cd 9.2598 15.1869 6.7653
Cd 8.0004 -16.6716 6.9233
Cd -15.6831 -5.5824 6.9329
Cd 9.3362 -7.1516 6.9466
Cd -14.3473 3.9376 6.9562
Cd 10.6720 2.3685 6.9699
Cd -13.0115 13.4577 6.9796
Cd 12.0078 11.8885 6.9932
Cd -12.9351 -8.8808 7.1609
Cd 12.0842 -10.4500 7.1746
Cd -11.5993 0.6392 7.1842
Cd 13.4201 -0.9299 7.1979
Cd -10.2634 10.1592 7.2076
Cd 14.7559 8.5901 7.2212
Cd -10.1870 -12.1792 7.3889
Cd -8.8512 -2.6592 7.4122
Cd 16.1681 -4.2283 7.4259
Cd -7.5154 6.8608 7.4356
Cd 17.5039 5.2917 7.4492
Cd -6.1796 16.3809 7.4589
Cd -7.4390 -15.4776 7.6169
Cd -6.1032 -5.9576 7.6402
Cd -4.7674 3.5624 7.6636
Cd -3.4316 13.0825 7.6869
Cd -4.6910 -18.7761 7.8449
Cd -3.3552 -9.2560 7.8682
Cd -2.0193 0.2640 7.8916
Cd -0.6835 9.7840 7.9149
Cd 0.6523 19.3041 7.9382
Cd -0.6071 -12.5544 8.0962
Cd 0.7287 -3.0344 8.1195
Cd 2.0645 6.4856 8.1429
Cd 3.4003 16.0057 8.1662
Cd 2.1409 -15.8528 8.3242
Cd 3.4767 -6.3328 8.3475
Cd 4.8126 3.1872 8.3709
Cd 6.1484 12.7073 8.3942
Cd 6.2248 -9.6312 8.5755
Cd -17.4587 1.4580 8.5852
Cd 7.5606 -0.1112 8.5989
Cd -16.1229 10.9780 8.6085
Cd 8.8964 9.4088 8.6222
Cd 8.9728 -12.9296 8.8035
Cd -14.7107 -1.8405 8.8132
Cd 10.3086 -3.4096 8.8269
Cd -13.3749 7.6796 8.8365
Cd 11.6444 6.1104 8.8502
Cd -11.9627 -5.1389 9.0412
Cd 13.0567 -6.7080 9.0548
Cd -10.6268 4.3812 9.0645
Cd 14.3925 2.8120 9.0782
Cd -9.2910 13.9012 9.0878
Cd -9.2146 -8.4373 9.2692
Cd 15.8047 -10.0064 9.2828
Cd -7.8788 1.0828 9.2925
Cd 17.1405 -0.4864 9.3062
Cd -6.5430 10.6028 9.3158
Cd -6.4666 -11.7357 9.4972
Cd -5.1308 -2.2157 9.5205
Cd -3.7950 7.3044 9.5438
Cd -2.4591 16.8244 9.5671
Cd -3.7186 -15.0341 9.7252
Cd -2.3827 -5.5141 9.7485
Cd -1.0469 4.0060 9.7718
Cd 0.2889 13.5260 9.7951
Cd -0.9705 -18.3325 9.9532
Cd 0.3653 -8.8125 9.9765
Cd 1.7011 0.7076 9.9998
Cd 3.0369 10.2276 10.0231
Cd 3.1133 -12.1109 10.2045
Cd 4.4492 -2.5909 10.2278
Cd 5.7850 6.9292 10.2511
Cd 7.1208 16.4492 10.2744
Cd 5.8614 -15.4093 10.4325
Cd -17.8221 -4.3201 10.4421
Cd 7.1972 -5.8893 10.4558
Cd -16.4863 5.1999 10.4654
Cd 8.5330 3.6308 10.4791
Cd 9.8688 13.1508 10.5024
Cd -15.0741 -7.6185 10.6701
Cd 9.9452 -9.1877 10.6838
Cd -13.7383 1.9015 10.6934
Cd 11.2810 0.3324 10.7071
Cd -12.4025 11.4215 10.7168
Cd 12.6169 9.8524 10.7304
Cd -12.3261 -10.9169 10.8981
Cd 12.6933 -12.4861 10.9118
Cd -10.9902 -1.3969 10.9214
Cd 14.0291 -2.9660 10.9351
Cd -9.6544 8.1231 10.9447
Cd 15.3649 6.5540 10.9584
Cd -9.5780 -14.2154 11.1261
Cd -8.2422 -4.6953 11.1494
Cd 16.7771 -6.2645 11.1631
Cd -6.9064 4.8247 11.1727
Cd -5.5706 14.3448 11.1961
Cd -5.4942 -7.9937 11.3774
Cd -4.1584 1.5263 11.4007
Cd -2.8225 11.0463 11.4241
Cd -2.7461 -11.2921 11.6054
Cd -1.4103 -1.7721 11.6287
Cd -0.0745 7.7479 11.6521
Cd 1.2613 17.2680 11.6754
Cd 0.0019 -14.5906 11.8334
Cd 1.3377 -5.0705 11.8567
Cd 2.6735 4.4495 11.8801
Cd 4.0093 13.9696 11.9034
Cd 4.0858 -8.3689 12.0847
Cd 5.4216 1.1511 12.1080
Cd 6.7574 10.6711 12.1314
Cd 6.8338 -11.6673 12.3127
Cd -16.8497 -0.5782 12.3224
Cd 8.1696 -2.1473 12.3360
Cd 9.5054 7.3727 12.3594
Cd -14.1017 -3.8766 12.5504
Cd 10.9176 -5.4457 12.5640
Cd -12.7659 5.6435 12.5737
Cd 12.2535 4.0743 12.5874
Cd -11.3536 -7.1750 12.7784
Cd 13.6657 -8.7441 12.7920
Cd -10.0178 2.3451 12.8017
Cd 15.0015 0.7759 12.8154
Cd -8.6820 11.8651 12.8250
Cd -8.6056 -10.4734 13.0063
Cd -7.2698 -0.9534 13.0297
Cd -5.9340 8.5667 13.0530
Cd -5.8576 -13.7718 13.2343
Cd -4.5218 -4.2518 13.2577
Cd -3.1859 5.2683 13.2810
Cd -1.8501 14.7883 13.3043
Cd -1.7737 -7.5502 13.4857
Cd -0.4379 1.9699 13.5090
Cd 0.8979 11.4899 13.5323
Cd 0.9743 -10.8486 13.7137
Cd 2.3101 -1.3286 13.7370
Cd 3.6459 8.1915 13.7603
Cd 3.7224 -14.1470 13.9417
Cd 5.0582 -4.6270 13.9650
Cd 6.3940 4.8931 13.9883
Cd 7.8062 -7.9254 14.1930
Cd 9.1420 1.5947 14.2163
Cd 10.4778 11.1147 14.2396
Cd 10.5542 -11.2238 14.4210
Cd -13.1293 -0.1346 14.4306
Cd 11.8901 -1.7038 14.4443
Cd -11.7935 9.3854 14.4539
Cd 13.2259 7.8163 14.4676
Cd -10.3812 -3.4330 14.6586
Cd 14.6381 -5.0022 14.6723
Cd -9.0454 6.0870 14.6819
Cd -7.6332 -6.7314 14.8866
Cd -6.2974 2.7886 14.9099
Cd -4.9616 12.3086 14.9333
Cd -4.8852 -10.0298 15.1146
Cd -3.5493 -0.5098 15.1379
Cd -2.2135 9.0102 15.1612
Cd -2.1371 -13.3283 15.3426
Cd -0.8013 -3.8082 15.3659
Cd 0.5345 5.7118 15.3892
Cd 1.9467 -7.1066 15.5939
Cd 3.2825 2.4134 15.6172
Cd 4.6184 11.9334 15.6406
Cd 4.6948 -10.4050 15.8219
Cd 6.0306 -0.8850 15.8452
Cd 7.3664 8.6350 15.8686
Cd 8.7786 -4.1834 16.0732
Cd 10.1144 5.3366 16.0965
Cd 11.5267 -7.4818 16.3012
Cd -12.1569 3.6073 16.3109
Cd 12.8625 2.0382 16.3245
Cd -9.4088 0.3089 16.5389
Cd -8.0730 9.8290 16.5622
Cd -6.6608 -2.9895 16.7669
Cd -5.3250 6.5306 16.7902
Cd -3.9127 -6.2879 16.9949
Cd -2.5769 3.2321 17.0182
Cd -1.2411 12.7522 17.0415
Cd -1.1647 -9.5863 17.2228
Cd 0.1711 -0.0663 17.2462
Cd 1.5069 9.4538 17.2695
Cd 2.9191 -3.3647 17.4742
Cd 4.2550 6.1554 17.4975
Cd 5.6672 -6.6631 17.7022
Cd 7.0030 2.8570 17.7255
Cd 9.7510 -0.4415 17.9535
Cd -8.4364 4.0509 18.4191
Cd -5.6884 0.7525 18.6471
Cd -2.9403 -2.5459 18.8751
Cd -1.6045 6.9741 18.8984
Cd -0.1923 -5.8443 19.1031
Cd 1.1435 3.6757 19.1264
Cd 3.8916 0.3773 19.3544
Cd 6.6396 -2.9211 19.5824
Cd -1.9679 1.1960 20.7554
Cd 0.7801 -2.1024 20.9834
Se -0.7801 2.1024 -20.9834
Se 1.9679 -1.1960 -20.7554
Se -6.6396 2.9211 -19.5824
Se -3.8916 -0.3773 -19.3544
Se -1.1435 -3.6757 -19.1264
Se 0.1923 5.8443 -19.1031
Se 1.6045 -6.9741 -18.8984
Se 2.9403 2.5459 -18.8751
Se 5.6884 -0.7525 -18.6471
Se 8.4364 -4.0509 -18.4191
Se -9.7510 0.4415 -17.9535
Se -7.0030 -2.8570 -17.7255
Se -5.6672 6.6631 -17.7022
Se -4.2550 -6.1554 -17.4975
Se -2.9191 3.3647 -17.4742
Se -1.5069 -9.4538 -17.2695
Se -0.1711 0.0663 -17.2462
Se 1.1647 9.5863 -17.2228
Se 1.2411 -12.7522 -17.0415
Se 2.5769 -3.2321 -17.0182
Se 3.9127 6.2879 -16.9949
Se 5.3250 -6.5306 -16.7902
Se 6.6608 2.9895 -16.7669
Se 8.0730 -9.8290 -16.5622
Se 9.4088 -0.3089 -16.5389
Se -12.8625 -2.0382 -16.3245
Se 12.1569 -3.6073 -16.3109
Se -11.5267 7.4818 -16.3012
Se -10.1144 -5.3366 -16.0965
Se -8.7786 4.1834 -16.0732
Se -7.3664 -8.6350 -15.8686
Se -6.0306 0.8850 -15.8452
Se -4.6948 10.4050 -15.8219
Se -4.6184 -11.9334 -15.6406
Se -3.2825 -2.4134 -15.6172
Se -1.9467 7.1066 -15.5939
Se -0.5345 -5.7118 -15.3892
Se 0.8013 3.8082 -15.3659
Se 2.1371 13.3283 -15.3426
Se 2.2135 -9.0102 -15.1612
Se 3.5493 0.5098 -15.1379
Se 4.8852 10.0298 -15.1146
Se 4.9616 -12.3086 -14.9333
Se 6.2974 -2.7886 -14.9099
Se 7.6332 6.7314 -14.8866
Se 9.0454 -6.0870 -14.6819
Se -14.6381 5.0022 -14.6723
Se 10.3812 3.4330 -14.6586
Se -13.2259 -7.8163 -14.4676
Se 11.7935 -9.3854 -14.4539
Se -11.8901 1.7038 -14.4443
Se 13.1293 0.1346 -14.4306
Se -10.5542 11.2238 -14.4210
Se -10.4778 -11.1147 -14.2396
Se -9.1420 -1.5947 -14.2163
Se -7.8062 7.9254 -14.1930
Se -6.3940 -4.8931 -13.9883
Se -5.0582 4.6270 -13.9650
Se -3.7224 14.1470 -13.9417
Se -3.6459 -8.1915 -13.7603
Se -2.3101 1.3286 -13.7370
Se -0.9743 10.8486 -13.7137
Se -0.8979 -11.4899 -13.5323
Se 0.4379 -1.9699 -13.5090
Se 1.7737 7.5502 -13.4857
Se 1.8501 -14.7883 -13.3043
Se 3.1859 -5.2683 -13.2810
Se 4.5218 4.2518 -13.2577
Se 5.8576 13.7718 -13.2343
Se 5.9340 -8.5667 -13.0530
Se 7.2698 0.9534 -13.0297
Se 8.6056 10.4734 -13.0063
Se 8.6820 -11.8651 -12.8250
Se -15.0015 -0.7759 -12.8154
Se 10.0178 -2.3451 -12.8017
Se -13.6657 8.7441 -12.7920
Se 11.3536 7.1750 -12.7784
Se -12.2535 -4.0743 -12.5874
Se 12.7659 -5.6435 -12.5737
Se -10.9176 5.4457 -12.5640
Se 14.1017 3.8766 -12.5504
Se -9.5054 -7.3727 -12.3594
Se -8.1696 2.1473 -12.3360
Se 16.8497 0.5782 -12.3224
Se -6.8338 11.6673 -12.3127
Se -6.7574 -10.6711 -12.1314
Se -5.4216 -1.1511 -12.1080
Se -4.0858 8.3689 -12.0847
Se -4.0093 -13.9696 -11.9034
Se -2.6735 -4.4495 -11.8801
Se -1.3377 5.0705 -11.8567
Se -0.0019 14.5906 -11.8334
Se -1.2613 -17.2680 -11.6754
Se 0.0745 -7.7479 -11.6521
Se 1.4103 1.7721 -11.6287
Se 2.7461 11.2921 -11.6054
Se 2.8225 -11.0463 -11.4241
Se 4.1584 -1.5263 -11.4007
Se 5.4942 7.9937 -11.3774
Se 5.5706 -14.3448 -11.1961
Se 6.9064 -4.8247 -11.1727
Se -16.7771 6.2645 -11.1631
Se 8.2422 4.6953 -11.1494
Se 9.5780 14.2154 -11.1261
Se -15.3649 -6.5540 -10.9584
Se 9.6544 -8.1231 -10.9447
Se -14.0291 2.9660 -10.9351
Se 10.9902 1.3969 -10.9214
Se -12.6933 12.4861 -10.9118
Se 12.3261 10.9169 -10.8981
Se -12.6169 -9.8524 -10.7304
Se 12.4025 -11.4215 -10.7168
Se -11.2810 -0.3324 -10.7071
Se 13.7383 -1.9015 -10.6934
Se -9.9452 9.1877 -10.6838
Se 15.0741 7.6185 -10.6701
Se -9.8688 -13.1508 -10.5024
Se -8.5330 -3.6308 -10.4791
Se 16.4863 -5.1999 -10.4654
Se -7.1972 5.8893 -10.4558
Se 17.8221 4.3201 -10.4421
Se -5.8614 15.4093 -10.4325
Se -7.1208 -16.4492 -10.2744
Se -5.7850 -6.9292 -10.2511
Se -4.4492 2.5909 -10.2278
Se -3.1133 12.1109 -10.2045
Se -3.0369 -10.2276 -10.0231
Se -1.7011 -0.7076 -9.9998
Se -0.3653 8.8125 -9.9765
Se 0.9705 18.3325 -9.9532
Se -0.2889 -13.5260 -9.7951
Se 1.0469 -4.0060 -9.7718
Se 2.3827 5.5141 -9.7485
Se 3.7186 15.0341 -9.7252
Se 2.4591 -16.8244 -9.5671
Se 3.7950 -7.3044 -9.5438
Se 5.1308 2.2157 -9.5205
Se 6.4666 11.7357 -9.4972
Se 6.5430 -10.6028 -9.3158
Se -17.1405 0.4864 -9.3062
Se 7.8788 -1.0828 -9.2925
Se -15.8047 10.0064 -9.2828
Se 9.2146 8.4373 -9.2692
Se 9.2910 -13.9012 -9.0878
Se -14.3925 -2.8120 -9.0782
Se 10.6268 -4.3812 -9.0645
Se -13.0567 6.7080 -9.0548
Se 11.9627 5.1389 -9.0412
Se -11.6444 -6.1104 -8.8502
Se 13.3749 -7.6796 -8.8365
Se -10.3086 3.4096 -8.8269
Se 14.7107 1.8405 -8.8132
Se -8.9728 12.9296 -8.8035
Se -8.8964 -9.4088 -8.6222
Se 16.1229 -10.9780 -8.6085
Se -7.5606 0.1112 -8.5989
Se 17.4587 -1.4580 -8.5852
Se -6.2248 9.6312 -8.5755
Se -6.1484 -12.7073 -8.3942
Se -4.8126 -3.1872 -8.3709
Se -3.4767 6.3328 -8.3475
Se -2.1409 15.8528 -8.3242
Se -3.4003 -16.0057 -8.1662
Se -2.0645 -6.4856 -8.1429
Se -0.7287 3.0344 -8.1195
Se 0.6071 12.5544 -8.0962
Se -0.6523 -19.3041 -7.9382
Se 0.6835 -9.7840 -7.9149
Se 2.0193 -0.2640 -7.8916
Se 3.3552 9.2560 -7.8682
Se 4.6910 18.7761 -7.8449
Se 3.4316 -13.0825 -7.6869
Se 4.7674 -3.5624 -7.6636
Se 6.1032 5.9576 -7.6402
Se 7.4390 15.4776 -7.6169
Se 6.1796 -16.3809 -7.4589
Se -17.5039 -5.2917 -7.4492
Se 7.5154 -6.8608 -7.4356
Se -16.1681 4.2283 -7.4259
Se 8.8512 2.6592 -7.4122
Se 10.1870 12.1792 -7.3889
Se -14.7559 -8.5901 -7.2212
Se 10.2634 -10.1592 -7.2076
Se -13.4201 0.9299 -7.1979
Se 11.5993 -0.6392 -7.1842
Se -12.0842 10.4500 -7.1746
Se 12.9351 8.8808 -7.1609
Se -12.0078 -11.8885 -6.9932
Se 13.0115 -13.4577 -6.9796
Se -10.6720 -2.3685 -6.9699
Se 14.3473 -3.9376 -6.9562
Se -9.3362 7.1516 -6.9466
Se 15.6831 5.5824 -6.9329
Se -8.0004 16.6716 -6.9233
Se -9.2598 -15.1869 -6.7653
Se -7.9240 -5.6669 -6.7419
Se 17.0953 -7.2360 -6.7283
Se -6.5882 3.8531 -6.7186
Se 18.4311 2.2840 -6.7049
Se -5.2524 13.3732 -6.6953
Se -6.5118 -18.4853 -6.5373
Se -5.1759 -8.9653 -6.5139
Se -3.8401 0.5547 -6.4906
Se -2.5043 10.0748 -6.4673
Se -1.1685 19.5948 -6.4440
Se -2.4279 -12.2637 -6.2859
Se -1.0921 -2.7437 -6.2626
Se 0.2437 6.7764 -6.2393
Se 1.5795 16.2964 -6.2160
Se 0.3201 -15.5621 -6.0579
Se 1.6559 -6.0421 -6.0346
Se 2.9918 3.4779 -6.0113
Se 4.3276 12.9980 -5.9880
Se 3.0682 -18.8605 -5.8300
Se 4.4040 -9.3405 -5.8066
Se -19.2795 1.7487 -5.7970
Se 5.7398 0.1795 -5.7833
Se 7.0756 9.6996 -5.7600
Se 7.1520 -12.6389 -5.5786
Se -16.5315 -1.5497 -5.5690
Se 8.4878 -3.1189 -5.5553
Se -15.1957 7.9703 -5.5457
Se 9.8236 6.4012 -5.5320
Se 11.1595 15.9212 -5.5087
Se 9.9000 -15.9373 -5.3506
Se -13.7835 -4.8481 -5.3410
Se 11.2359 -6.4173 -5.3273
Se -12.4476 4.6719 -5.3177
Se 12.5717 3.1028 -5.3040
Se -11.1118 14.1919 -5.2943
Se 13.9075 12.6228 -5.2807
Se -11.0354 -8.1466 -5.1130
Se 13.9839 -9.7157 -5.0993
Se -9.6996 1.3735 -5.0897
Se 15.3197 -0.1957 -5.0760
Se -8.3638 10.8935 -5.0663
Se 16.6555 9.3244 -5.0527
Se -8.2874 -11.4450 -4.8850
Se -6.9516 -1.9249 -4.8617
Se 18.0677 -3.4941 -4.8480
Se -5.6158 7.5951 -4.8384
Se 19.4036 6.0260 -4.8247
Se -4.2799 17.1151 -4.8150
Se -5.5393 -14.7434 -4.6570
Se -4.2035 -5.2233 -4.6337
Se -2.8677 4.2967 -4.6104
Se -1.5319 13.8167 -4.5870
Se -2.7913 -18.0418 -4.4290
Se -1.4555 -8.5218 -4.4057
Se -0.1197 0.9983 -4.3824
Se 1.2161 10.5183 -4.3590
Se 2.5519 20.0384 -4.3357
Se 1.2925 -11.8202 -4.1777
Se 2.6284 -2.3001 -4.1544
Se 3.9642 7.2199 -4.1310
Se 5.3000 16.7399 -4.1077
Se 4.0406 -15.1186 -3.9497
Se -19.6429 -4.0294 -3.9400
Se 5.3764 -5.5985 -3.9264
Se -18.3071 5.4906 -3.9167
Se 6.7122 3.9215 -3.9031
Se 8.0480 13.4415 -3.8797
Se 6.7886 -18.4170 -3.7217
Se -16.8949 -7.3278 -3.7121
Se 8.1244 -8.8969 -3.6984
Se -15.5591 2.1922 -3.6887
Se 9.4602 0.6231 -3.6751
Se -14.2233 11.7123 -3.6654
Se 10.7961 10.1431 -3.6517
Se -14.1469 -10.6262 -3.4841
Se 10.8725 -12.1954 -3.4704
Se -12.8110 -1.1062 -3.4607
Se 12.2083 -2.6753 -3.4471
Se -11.4752 8.4139 -3.4374
Se 13.5441 6.8447 -3.4237
Se -10.1394 17.9339 -3.4141
Se -11.3988 -13.9246 -3.2561
Se 13.6205 -15.4938 -3.2424
Se -10.0630 -4.4046 -3.2327
Se 14.9563 -5.9737 -3.2191
Se -8.7272 5.1154 -3.2094
Se 16.2921 3.5463 -3.1957
Se -7.3914 14.6355 -3.1861
Se -8.6508 -17.2230 -3.0281
Se -7.3150 -7.7030 -3.0047
Se 17.7043 -9.2721 -2.9911
Se -5.9792 1.8170 -2.9814
Se 19.0402 0.2479 -2.9677
Se -4.6433 11.3371 -2.9581
Se -3.3075 20.8571 -2.9348
Se -4.5669 -11.0014 -2.7768
Se -3.2311 -1.4814 -2.7534
Se -1.8953 8.0387 -2.7301
Se -0.5595 17.5587 -2.7068
Se -1.8189 -14.2998 -2.5488
Se -0.4831 -4.7798 -2.5254
Se 0.8527 4.7402 -2.5021
Se 2.1885 14.2603 -2.4788
Se 0.9291 -17.5982 -2.3208
Se 2.2650 -8.0782 -2.2974
Se 3.6008 1.4418 -2.2741
Se 4.9366 10.9619 -2.2508
Se 3.6772 -20.8966 -2.0928
Se 5.0130 -11.3766 -2.0694
Se -18.6705 -0.2874 -2.0598
Se 6.3488 -1.8566 -2.0461
Se -17.3347 9.2326 -2.0365
Se 7.6846 7.6635 -2.0228
Se 9.0204 17.1835 -1.9995
Se 7.7610 -14.6750 -1.8415
Se -15.9225 -3.5858 -1.8318
Se 9.0968 -5.1550 -1.8181
Se -14.5867 5.9342 -1.8085
Se 10.4327 4.3650 -1.7948
Se -13.2509 15.4542 -1.7852
Se 11.7685 13.8851 -1.7715
Se 10.5091 -17.9734 -1.6135
Se -13.1744 -6.8843 -1.6038
Se 11.8449 -8.4534 -1.5901
Se -11.8386 2.6358 -1.5805
Se 13.1807 1.0666 -1.5668
Se -10.5028 12.1558 -1.5572
Se 14.5165 10.5867 -1.5435
Se -10.4264 -10.1827 -1.3758
Se 14.5929 -11.7518 -1.3621
Se -9.0906 -0.6626 -1.3525
Se 15.9287 -2.2318 -1.3388
Se -7.7548 8.8574 -1.3292
Se 17.2645 7.2883 -1.3155
Se -6.4190 18.3774 -1.3058
Se -7.6784 -13.4811 -1.1478
Se -6.3426 -3.9610 -1.1245
Se 18.6768 -5.5302 -1.1108
Se -5.0067 5.5590 -1.1012
Se 20.0126 3.9898 -1.0875
Se -3.6709 15.0790 -1.0778
Se -4.9303 -16.7795 -0.9198
Se -3.5945 -7.2595 -0.8965
Se -2.2587 2.2606 -0.8732
Se -0.9229 11.7806 -0.8499
Se 0.4129 21.3006 -0.8265
Se -2.1823 -20.0779 -0.6918
Se -0.8465 -10.5579 -0.6685
Se 0.4893 -1.0378 -0.6452
Se 1.8251 8.4822 -0.6219
Se 3.1610 18.0022 -0.5985
Se 1.9016 -13.8563 -0.4405
Se 3.2374 -4.3362 -0.4172
Se 4.5732 5.1838 -0.3939
Se 5.9090 14.7038 -0.3705
Se 4.6496 -17.1547 -0.2125
Se -19.0339 -6.0655 -0.2029
Se 5.9854 -7.6347 -0.1892
Se -17.6981 3.4545 -0.1795
Se 7.3212 1.8854 -0.1659
Se -16.3623 12.9746 -0.1562
Se 8.6570 11.4054 -0.1425
Se -16.2859 -9.3639 0.0251
Se 8.7334 -10.9331 0.0388
Se -14.9501 0.1561 0.0485
Se 10.0693 -1.4130 0.0621
Se -13.6143 9.6761 0.0718
Se 11.4051 8.1070 0.0855
Se -13.5378 -12.6623 0.2531
Se 11.4815 -14.2315 0.2668
Se -12.2020 -3.1423 0.2764
Se 12.8173 -4.7114 0.2901
Se -10.8662 6.3777 0.2998
Se 14.1531 4.8086 0.3134
Se -9.5304 15.8978 0.3231
Se 15.4889 14.3286 0.3368
Se -10.7898 -15.9607 0.4811
Se -9.4540 -6.4407 0.5044
Se 15.5653 -8.0099 0.5181
Se -8.1182 3.0793 0.5278
Se 16.9011 1.5102 0.5414
Se -6.7824 12.5994 0.5511
Se 18.2370 11.0302 0.5648
Se -8.0418 -19.2592 0.7091
Se -6.7060 -9.7391 0.7324
Se -5.3701 -0.2191 0.7558
Se 19.6492 -1.7882 0.7694
Se -4.0343 9.3009 0.7791
Se -2.6985 18.8210 0.8024
Se -3.9579 -13.0375 0.9604
Se -2.6221 -3.5175 0.9838
Se -1.2863 6.0025 1.0071
Se 0.0495 15.5226 1.0304
Se -1.2099 -16.3359 1.1884
Se 0.1259 -6.8159 1.2117
Se 1.4617 2.7041 1.2351
Se 2.7976 12.2242 1.2584
Se 1.5382 -19.6344 1.4164
Se 2.8740 -10.1143 1.4397
Se -20.8095 0.9749 1.4494
Se 4.2098 -0.5943 1.4631
Se 5.5456 8.9258 1.4864
Se 6.8814 18.4458 1.5097
Se 5.6220 -13.4127 1.6677
Se -18.0615 -2.3236 1.6774
Se 6.9578 -3.8927 1.6911
Se -16.7257 7.1965 1.7007
Se 8.2936 5.6273 1.7144
Se 9.6294 15.1474 1.7377
Se 8.3700 -16.7111 1.8957
Se -15.3135 -5.6220 1.9054
Se 9.7059 -7.1911 1.9191
Se -13.9777 3.8981 1.9287
Se 11.0417 2.3289 1.9424
Se -12.6418 13.4181 1.9520
Se 12.3775 11.8490 1.9657
Se -12.5654 -8.9204 2.1334
Se 12.4539 -10.4895 2.1471
Se -11.2296 0.5997 2.1567
Se 13.7897 -0.9695 2.1704
Se -9.8938 10.1197 2.1800
Se 15.1255 8.5506 2.1937
Se -9.8174 -12.2188 2.3614
Se 15.2019 -13.7879 2.3750
Se -8.4816 -2.6988 2.3847
Se 16.5377 -4.2679 2.3984
Se -7.1458 6.8213 2.4080
Se 17.8736 5.2521 2.4217
Se -5.8100 16.3413 2.4313
Se -7.0694 -15.5172 2.5894
Se -5.7335 -5.9972 2.6127
Se 19.2858 -7.5663 2.6264
Se -4.3977 3.5229 2.6360
Se 20.6216 1.9537 2.6497
Se -3.0619 13.0429 2.6593
Se -4.3213 -18.8156 2.8174
Se -2.9855 -9.2956 2.8407
Se -1.6497 0.2245 2.8640
Se -0.3139 9.7445 2.8873
Se 1.0219 19.2645 2.9107
Se -0.2375 -12.5940 3.0687
Se 1.0983 -3.0739 3.0920
Se 2.4342 6.4461 3.1153
Se 3.7700 15.9661 3.1386
Se 2.5106 -15.8924 3.2967
Se 3.8464 -6.3724 3.3200
Se -19.8371 4.7168 3.3296
Se 5.1822 3.1477 3.3433
Se 6.5180 12.6677 3.3666
Se 5.2586 -19.1908 3.5247
Se -18.4249 -8.1016 3.5343
Se 6.5944 -9.6708 3.5480
Se -17.0891 1.4184 3.5576
Se 7.9302 -0.1507 3.5713
Se -15.7533 10.9384 3.5810
Se 9.2660 9.3693 3.5946
Se -15.6769 -11.4000 3.7623
Se 9.3425 -12.9692 3.7760
Se -14.3411 -1.8800 3.7856
Se 10.6783 -3.4491 3.7993
Se -13.0052 7.6400 3.8090
Se 12.0141 6.0709 3.8226
Se -11.6694 17.1601 3.8323
Se 13.3499 15.5909 3.8460
Se -12.9288 -14.6985 3.9903
Se 12.0905 -16.2676 4.0040
Se -11.5930 -5.1784 4.0136
Se 13.4263 -6.7476 4.0273
Se -10.2572 4.3416 4.0370
Se 14.7621 2.7725 4.0506
Se -8.9214 13.8617 4.0603
Se 16.0979 12.2925 4.0740
Se -10.1808 -17.9969 4.2183
Se -8.8450 -8.4768 4.2416
Se 16.1743 -10.0460 4.2553
Se -7.5092 1.0432 4.2649
Se 17.5102 -0.5259 4.2786
Se -6.1734 10.5632 4.2883
Se 18.8460 8.9941 4.3019
Se -4.8375 20.0833 4.3116
Se -6.0969 -11.7752 4.4696
Se -4.7611 -2.2552 4.4929
Se 20.2582 -3.8243 4.5066
Se -3.4253 7.2648 4.5163
Se -2.0895 16.7849 4.5396
Se -3.3489 -15.0736 4.6976
Se -2.0131 -5.5536 4.7209
Se -0.6773 3.9664 4.7443
Se 0.6585 13.4865 4.7676
Se -0.6009 -18.3721 4.9256
Se 0.7349 -8.8520 4.9489
Se 2.0708 0.6680 4.9723
Se 3.4066 10.1880 4.9956
Se 4.7424 19.7081 5.0189
Se 3.4830 -12.1504 5.1769
Se -20.2005 -1.0613 5.1866
Se 4.8188 -2.6304 5.2002
Se -18.8647 8.4588 5.2099
Se 6.1546 6.8896 5.2236
Se 7.4904 16.4097 5.2469
Se 6.2310 -15.4488 5.4049
Se -17.4525 -4.3597 5.4146
Se 7.5668 -5.9288 5.4282
Se -16.1167 5.1604 5.4379
Se 8.9026 3.5912 5.4516
Se 10.2385 13.1113 5.4749
Se -14.7045 -7.6581 5.6426
Se 10.3149 -9.2272 5.6562
Se -13.3686 1.8620 5.6659
Se 11.6507 0.2928 5.6796
Se -12.0328 11.3820 5.6892
Se 12.9865 9.8128 5.7029
Se -11.9564 -10.9565 5.8706
Se 13.0629 -12.5256 5.8842
Se -10.6206 -1.4365 5.8939
Se 14.3987 -3.0056 5.9076
Se -9.2848 8.0836 5.9172
Se 15.7345 6.5144 5.9309
Se -7.9490 17.6036 5.9405
Se -9.2084 -14.2549 6.0986
Se -7.8726 -4.7349 6.1219
Se 17.1468 -6.3040 6.1356
Se -6.5367 4.7852 6.1452
Se 18.4826 3.2160 6.1589
Se -5.2009 14.3052 6.1685
Se -6.4603 -17.5533 6.3265
Se -5.1245 -8.0333 6.3499
Se -3.7887 1.4868 6.3732
Se -2.4529 11.0068 6.3965
Se -2.3765 -11.3317 6.5779
Se -1.0407 -1.8117 6.6012
Se 0.2951 7.7084 6.6245
Se 1.6310 17.2284 6.6478
Se 0.3715 -14.6301 6.8059
Se 1.7074 -5.1101 6.8292
Se 3.0432 4.4100 6.8525
Se 4.3790 13.9300 6.8758
Se 3.1196 -17.9285 7.0339
Se 4.4554 -8.4085 7.0572
Se -19.2281 2.6807 7.0668
Se 5.7912 1.1116 7.0805
Se 7.1270 10.6316 7.1038
Se 7.2034 -11.7069 7.2852
Se -16.4801 -0.6177 7.2948
Se 8.5392 -2.1869 7.3085
Se -15.1443 8.9023 7.3181
Se 9.8751 7.3332 7.3318
Se 9.9515 -15.0053 7.5132
Se -13.7320 -3.9161 7.5228
Se 11.2873 -5.4853 7.5365
Se -12.3962 5.6039 7.5461
Se 12.6231 4.0348 7.5598
Se -11.0604 15.1239 7.5695
Se 13.9589 13.5548 7.5831
Se -10.9840 -7.2145 7.7508
Se 14.0353 -8.7837 7.7645
Se -9.6482 2.3055 7.7741
Se 15.3711 0.7364 7.7878
Se -8.3124 11.8255 7.7975
Se 16.7069 10.2564 7.8111
Se -8.2360 -10.5129 7.9788
Se -6.9001 -0.9929 8.0021
Se 18.1192 -2.5620 8.0158
Se -5.5643 8.5271 8.0255
Se -4.2285 18.0472 8.0488
Se -5.4879 -13.8114 8.2068
Se -4.1521 -4.2913 8.2301
Se -2.8163 5.2287 8.2534
Se -1.4805 14.7487 8.2768
Se -2.7399 -17.1098 8.4348
Se -1.4041 -7.5897 8.4581
Se -0.0683 1.9303 8.4814
Se 1.2676 11.4503 8.5048
Se 1.3440 -10.8881 8.6861
Se 2.6798 -1.3681 8.7094
Se 4.0156 8.1519 8.7328
Se 5.3514 17.6720 8.7561
Se 4.0920 -14.1866 8.9141
Se 5.4278 -4.6665 8.9374
Se -18.2557 6.4227 8.9471
Se 6.7636 4.8535 8.9608
Se 8.0994 14.3736 8.9841
Se 6.8400 -17.4850 9.1421
Se -16.8435 -6.3958 9.1518
Se 8.1758 -7.9649 9.1654
Se -15.5077 3.1242 9.1751
Se 9.5117 1.5551 9.1887
Se -14.1718 12.6443 9.1984
Se 10.8475 11.0751 9.2121
Se -14.0954 -9.6942 9.3797
Se 10.9239 -11.2633 9.3934
Se -12.7596 -0.1742 9.4031
Se 12.2597 -1.7433 9.4167
Se -11.4238 9.3459 9.4264
Se 13.5955 7.7767 9.4401
Se -11.3474 -12.9926 9.6077
Se -10.0116 -3.4726 9.6311
Se 15.0077 -5.0417 9.6447
Se -8.6758 6.0475 9.6544
Se 16.3435 4.4783 9.6681
Se -7.3400 15.5675 9.6777
Se -8.5994 -16.2910 9.8357
Se -7.2635 -6.7710 9.8591
Se -5.9277 2.7491 9.8824
Se -4.5919 12.2691 9.9057
Se -4.5155 -10.0694 10.0871
Se -3.1797 -0.5494 10.1104
Se -1.8439 8.9707 10.1337
Se -0.5081 18.4907 10.1570
Se -1.7675 -13.3678 10.3150
Se -0.4317 -3.8478 10.3384
Se 0.9042 5.6723 10.3617
Se 2.2400 15.1923 10.3850
Se 0.9806 -16.6662 10.5430
Se 2.3164 -7.1462 10.5664
Se 3.6522 2.3739 10.5897
Se 4.9880 11.8939 10.6130
Se 5.0644 -10.4446 10.7944
Se 6.4002 -0.9246 10.8177
Se 7.7360 8.5955 10.8410
Se 7.8124 -13.7430 11.0224
Se -15.8711 -2.6538 11.0320
Se 9.1483 -4.2230 11.0457
Se -14.5352 6.8662 11.0553
Se 10.4841 5.2971 11.0690
Se -13.1230 -5.9522 11.2600
Se 11.8963 -7.5214 11.2737
Se -11.7872 3.5678 11.2833
Se 13.2321 1.9987 11.2970
Se -10.4514 13.0878 11.3066
Se -10.3750 -9.2506 11.4880
Se -9.0392 0.2694 11.5113
Se 15.9802 -1.2998 11.5250
Se -7.7034 9.7894 11.5346
Se -7.6269 -12.5491 11.7160
Se -6.2911 -3.0290 11.7393
Se -4.9553 6.4910 11.7626
Se -3.6195 16.0110 11.7860
Se -4.8789 -15.8475 11.9440
Se -3.5431 -6.3274 11.9673
Se -2.2073 3.1926 11.9906
Se -0.8715 12.7126 12.0140
Se -0.7951 -9.6258 12.1953
Se 0.5408 -0.1058 12.2186
Se 1.8766 9.4142 12.2419
Se 1.9530 -12.9243 12.4233
Se 3.2888 -3.4042 12.4466
Se 4.6246 6.1158 12.4699
Se 5.9604 15.6358 12.4933
Se 4.7010 -16.2227 12.6513
Se 6.0368 -6.7026 12.6746
Se 7.3726 2.8174 12.6979
Se 8.7085 12.3374 12.7213
Se 8.7849 -10.0010 12.9026
Se -14.8986 1.0881 12.9123
Se 10.1207 -0.4810 12.9259
Se 11.4565 9.0390 12.9493
Se -12.1506 -2.2103 13.1403
Se 12.8687 -3.7794 13.1539
Se -10.8148 7.3098 13.1636
Se 14.2045 5.7406 13.1773
Se -9.4026 -5.5087 13.3682
Se -8.0668 4.0113 13.3916
Se -6.7309 13.5314 13.4149
Se -6.6545 -8.8071 13.5962
Se -5.3187 0.7129 13.6196
Se -3.9829 10.2330 13.6429
Se -3.9065 -12.1055 13.8242
Se -2.5707 -2.5855 13.8476
Se -1.2349 6.9346 13.8709
Se -1.1585 -15.4039 14.0522
Se 0.1774 -5.8839 14.0756
Se 1.5132 3.6361 14.0989
Se 2.8490 13.1562 14.1222
Se 2.9254 -9.1823 14.3035
Se 4.2612 0.3377 14.3269
Se 5.5970 9.8578 14.3502
Se 5.6734 -12.4807 14.5315
Se 7.0092 -2.9607 14.5549
Se 8.3451 6.5594 14.5782
Se 9.7573 -6.2591 14.7829
Se -13.9262 4.8301 14.7925
Se 11.0931 3.2609 14.8062
Se -12.5140 -7.9884 14.9972
Se -11.1782 1.5317 15.0205
Se 13.8411 -0.0375 15.0342
Se -9.8424 11.0517 15.0438
Se -9.7660 -11.2868 15.2252
Se -8.4302 -1.7667 15.2485
Se -7.0943 7.7533 15.2718
Se -5.6821 -5.0651 15.4765
Se -4.3463 4.4549 15.4998
Se -3.0105 13.9749 15.5231
Se -2.9341 -8.3636 15.7045
Se -1.5983 1.1565 15.7278
Se -0.2625 10.6765 15.7511
Se -0.1860 -11.6620 15.9325
Se 1.1498 -2.1419 15.9558
Se 2.4856 7.3781 15.9791
Se 3.8978 -5.4403 16.1838
Se 5.2336 4.0797 16.2071
Se 6.6458 -8.7387 16.4118
Se 7.9817 0.7813 16.4351
Se 10.7297 -2.5171 16.6631
Se -11.5416 -4.2464 16.8774
Se -10.2058 5.2736 16.9008
Se -8.7936 -7.5448 17.1054
Se -7.4577 1.9752 17.1288
Se -6.0455 -10.8432 17.3334
Se -4.7097 -1.3232 17.3567
Se -3.3739 8.1969 17.3801
Se -1.9617 -4.6216 17.5847
Se -0.6259 4.8984 17.6081
Se 0.7864 -7.9200 17.8127
Se 2.1222 1.6000 17.8361
Se 3.4580 11.1201 17.8594
Se 4.8702 -1.6984 18.0641
Se 6.2060 7.8217 18.0874
Se 7.6183 -4.9968 18.2920
Se 8.9541 4.5232 18.3154
Se -7.8211 -3.8028 18.9857
Se -6.4853 5.7172 19.0090
Se -5.0731 -7.1013 19.2137
Se -3.7373 2.4188 19.2370
Se -0.9893 -0.8796 19.4650
Se 0.3466 8.6404 19.4883
Se 1.7588 -4.1780 19.6930
Se 3.0946 5.3420 19.7163
Se 5.8426 2.0436 19.9443
