17
QM7-X native coordinates in angstrom (molecule 7035, Geom-m7035-i1-c1-opt)
C -1.803805 0.956598 0.700986
C -0.277892 0.883232 0.74227
S 0.359943 -0.520427 -0.326716
O -0.301352 -0.458879 -1.628666
O 1.819585 -0.530336 -0.238604
C -0.265897 -2.013642 0.565
C 0.374815 2.184206 0.267456
H -2.257788 0.051888 1.101268
H -2.156888 1.092619 -0.318304
H -2.155011 1.7983 1.29454
H 0.050639 0.674767 1.771035
H -1.352047 -2.042641 0.567397
H 0.095052 -2.034048 1.58988
H 0.101548 -2.899391 0.051948
H 0.085882 2.412062 -0.755997
H 1.458862 2.111317 0.310205
H 0.061474 3.013307 0.899368
