20
SAMPL9 WP6 guest G4 (challenge 3D structure; coordinates copied unchanged), angstrom
C 0.369 0.356 1.870
C 1.296 -1.352 -0.497
C 1.348 1.697 -0.696
C -1.326 0.232 -0.686
N -2.118 -0.894 -0.129
Si 0.409 0.225 -0.002
H -0.143 1.268 2.192
H -0.155 -0.495 2.315
H 1.381 0.378 2.286
H 1.336 -1.458 -1.586
H 2.325 -1.361 -0.124
H 0.789 -2.234 -0.096
H 1.394 1.658 -1.789
H 0.868 2.640 -0.417
H 2.376 1.724 -0.321
H -1.863 1.148 -0.425
H -1.336 0.111 -1.773
H -1.707 -1.808 -0.362
H -2.200 -0.839 0.896
H -3.075 -0.889 -0.507
