1026
Model zinc-blende CdSe nanocrystal CdSe-QD-C (spherical cut, no ligands), angstrom
Cd 3.4442 -4.5926 -17.8874
Cd -0.7707 -3.9752 -17.3075
Cd 6.2088 -1.3849 -17.1454
Cd -4.9857 -3.3578 -16.7277
Cd 1.9938 -0.7674 -16.5655
Cd 8.9733 1.8229 -16.4034
Cd -9.2006 -2.7404 -16.1478
Cd -2.2211 -0.1500 -15.9857
Cd 4.7584 2.4403 -15.8235
Cd -6.4361 0.4674 -15.4058
Cd 0.5434 3.0578 -15.2437
Cd 3.3136 -7.9744 -15.2360
Cd 7.5229 5.6481 -15.0815
Cd -10.6510 1.0849 -14.8260
Cd -3.6715 3.6752 -14.6638
Cd -0.9014 -7.3570 -14.6561
Cd 3.3080 6.2656 -14.5016
Cd 6.0781 -4.7666 -14.4940
Cd -7.8865 4.2926 -14.0840
Cd -5.1163 -6.7395 -14.0763
Cd -0.9070 6.8830 -13.9218
Cd 1.8632 -4.1492 -13.9141
Cd 6.0725 9.4733 -13.7596
Cd 8.8427 -1.5588 -13.7519
Cd -12.1014 4.9101 -13.5041
Cd -9.3312 -6.1221 -13.4964
Cd -5.1219 7.5004 -13.3419
Cd -2.3517 -3.5317 -13.3343
Cd 1.8576 10.0908 -13.1798
Cd 4.6278 -0.9414 -13.1721
Cd 11.6072 1.6490 -13.0099
Cd -9.3368 8.1178 -12.7621
Cd -6.5667 -2.9143 -12.7544
Cd -2.3574 10.7082 -12.5999
Cd 0.4128 -0.3240 -12.5922
Cd 3.1830 -11.3561 -12.5846
Cd 4.6221 13.2985 -12.4378
Cd 7.3923 2.2664 -12.4301
Cd 10.1625 -8.7658 -12.4224
Cd -10.7816 -2.2969 -12.1746
Cd -6.5723 11.3256 -12.0201
Cd -3.8021 0.2935 -12.0124
Cd -1.0320 -10.7387 -12.0047
Cd 0.4072 13.9160 -11.8579
Cd 3.1774 2.8838 -11.8502
Cd 5.9475 -8.1483 -11.8425
Cd 10.1569 5.4742 -11.6881
Cd 12.9270 -5.5580 -11.6804
Cd -8.0171 0.9109 -11.4325
Cd -5.2469 -10.1213 -11.4249
Cd -3.8077 14.5334 -11.2781
Cd -1.0376 3.5012 -11.2704
Cd 1.7326 -7.5309 -11.2627
Cd 5.9419 6.0916 -11.1082
Cd 8.7121 -4.9406 -11.1005
Cd -12.2320 1.5283 -10.8527
Cd -9.4619 -9.5038 -10.8450
Cd -5.2525 4.1187 -10.6905
Cd -2.4824 -6.9135 -10.6828
Cd 1.7270 6.7090 -10.5284
Cd 4.4971 -4.3231 -10.5207
Cd 8.7065 9.2994 -10.3662
Cd 11.4766 -1.7328 -10.3585
Cd -9.4675 4.7361 -10.1107
Cd -6.6973 -6.2961 -10.1030
Cd -2.4880 7.3265 -9.9485
Cd 0.2822 -3.7057 -9.9408
Cd 3.0523 -14.7379 -9.9331
Cd 4.4915 9.9168 -9.7864
Cd 7.2617 -1.1153 -9.7787
Cd 10.0318 -12.1475 -9.7710
Cd 14.2412 1.4750 -9.6165
Cd -13.6824 5.3535 -9.5308
Cd -10.9123 -5.6786 -9.5231
Cd -6.7029 7.9439 -9.3687
Cd -3.9328 -3.0883 -9.3610
Cd -1.1626 -14.1204 -9.3533
Cd 0.2766 10.5342 -9.2065
Cd 3.0467 -0.4979 -9.1988
Cd 5.8169 -11.5301 -9.1911
Cd 7.2561 13.1246 -9.0443
Cd 10.0262 2.0924 -9.0367
Cd 12.7964 -8.9397 -9.0290
Cd -15.1272 -5.0612 -8.9433
Cd -10.9179 8.5613 -8.7888
Cd -8.1477 -2.4708 -8.7811
Cd -5.3775 -13.5030 -8.7734
Cd -3.9384 11.1517 -8.6267
Cd -1.1682 0.1195 -8.6190
Cd 1.6020 -10.9126 -8.6113
Cd 3.0411 13.7420 -8.4645
Cd 5.8113 2.7099 -8.4568
Cd 8.5815 -8.3223 -8.4491
Cd 12.7908 5.3002 -8.2946
Cd 15.5610 -5.7319 -8.2870
Cd -12.3626 -1.8534 -8.2013
Cd -9.5925 -12.8856 -8.1936
Cd -8.1533 11.7691 -8.0468
Cd -5.3831 0.7369 -8.0391
Cd -2.6130 -10.2952 -8.0314
Cd -1.1738 14.3595 -7.8846
Cd 1.5963 3.3273 -7.8770
Cd 4.3665 -7.7049 -7.8693
Cd 8.5758 5.9176 -7.7148
Cd 11.3460 -5.1145 -7.7071
Cd -16.5776 -1.2360 -7.6214
Cd -9.5981 1.3544 -7.4593
Cd -6.8279 -9.6778 -7.4516
Cd -5.3888 14.9769 -7.3048
Cd -2.6186 3.9447 -7.2971
Cd 0.1516 -7.0874 -7.2894
Cd 4.3609 6.5351 -7.1349
Cd 7.1311 -4.4971 -7.1273
Cd 11.3404 9.1254 -6.9728
Cd 14.1106 -1.9067 -6.9651
Cd -13.8130 1.9718 -6.8794
Cd -11.0429 -9.0604 -6.8717
Cd -6.8335 4.5622 -6.7173
Cd -4.0634 -6.4700 -6.7096
Cd -1.2932 -17.5022 -6.7019
Cd 0.1460 7.1525 -6.5551
Cd 2.9161 -3.8797 -6.5474
Cd 5.6863 -14.9118 -6.5397
Cd 7.1255 9.7429 -6.3929
Cd 9.8956 -1.2893 -6.3852
Cd 12.6658 -12.3215 -6.3776
Cd -15.2578 -8.4429 -6.2919
Cd 16.8751 1.3010 -6.2231
Cd -11.0485 5.1796 -6.1374
Cd -8.2783 -5.8526 -6.1297
Cd -5.5082 -16.8847 -6.1220
Cd -4.0690 7.7699 -5.9752
Cd -1.2988 -3.2622 -5.9676
Cd 1.4713 -14.2944 -5.9599
Cd 2.9105 10.3603 -5.8131
Cd 5.6807 -0.6719 -5.8054
Cd 8.4508 -11.7040 -5.7977
Cd 9.8900 12.9506 -5.6509
Cd 12.6602 1.9185 -5.6432
Cd 15.4303 -9.1137 -5.6355
Cd -15.2634 5.7970 -5.5576
Cd -12.4933 -5.2351 -5.5499
Cd -8.2839 8.3874 -5.3954
Cd -5.5138 -2.6448 -5.3877
Cd -2.7436 -13.6770 -5.3800
Cd -1.3044 10.9777 -5.2332
Cd 1.4657 -0.0544 -5.2255
Cd 4.2359 -11.0866 -5.2179
Cd 5.6751 13.5681 -5.0711
Cd 8.4452 2.5359 -5.0634
Cd 11.2154 -8.4963 -5.0557
Cd -16.7082 -4.6177 -4.9700
Cd 15.4247 5.1263 -4.9012
Cd -12.4989 9.0048 -4.8155
Cd -9.7287 -2.0274 -4.8079
Cd -6.9586 -13.0595 -4.8002
Cd -5.5194 11.5951 -4.6534
Cd -2.7492 0.5630 -4.6457
Cd 0.0209 -10.4692 -4.6380
Cd 1.4601 14.1855 -4.4912
Cd 4.2303 3.1533 -4.4835
Cd 7.0004 -7.8788 -4.4758
Cd 11.2098 5.7437 -4.3214
Cd 13.9799 -5.2885 -4.3137
Cd -13.9437 -1.4099 -4.2280
Cd -11.1735 -12.4421 -4.2203
Cd -9.7343 12.2126 -4.0735
Cd -6.9642 1.1804 -4.0658
Cd -4.1940 -9.8517 -4.0582
Cd -2.7548 14.8029 -3.9114
Cd 0.0153 3.7708 -3.9037
Cd 2.7855 -7.2614 -3.8960
Cd 4.2247 17.3933 -3.7492
Cd 6.9948 6.3611 -3.7415
Cd 9.7650 -4.6710 -3.7338
Cd -18.1586 -0.7925 -3.6482
Cd 13.9743 8.9515 -3.5793
Cd 16.7445 -2.0807 -3.5717
Cd -11.1791 1.7978 -3.4860
Cd -8.4089 -9.2343 -3.4783
Cd -6.9698 15.4204 -3.3315
Cd -4.1996 4.3882 -3.3238
Cd -1.4294 -6.6440 -3.3161
Cd 1.3407 -17.6761 -3.3085
Cd 0.0097 18.0107 -3.1693
Cd 2.7799 6.9785 -3.1617
Cd 5.5500 -4.0536 -3.1540
Cd 8.3202 -15.0858 -3.1463
Cd 9.7594 9.5689 -2.9995
Cd 12.5295 -1.4633 -2.9918
Cd -15.3941 2.4153 -2.9061
Cd -12.6239 -8.6169 -2.8985
Cd -8.4146 5.0056 -2.7440
Cd -5.6444 -6.0265 -2.7363
Cd -2.8742 -17.0587 -2.7286
Cd -1.4351 7.5960 -2.5818
Cd 1.3351 -3.4362 -2.5741
Cd 4.1053 -14.4683 -2.5664
Cd 5.5444 10.1863 -2.4196
Cd 8.3146 -0.8458 -2.4120
Cd 11.0848 -11.8780 -2.4043
Cd -16.8388 -7.9995 -2.3186
Cd 12.5239 12.7767 -2.2575
Cd 15.2941 1.7445 -2.2498
Cd -12.6295 5.6231 -2.1641
Cd -9.8593 -5.4091 -2.1564
Cd -7.0892 -16.4413 -2.1488
Cd -5.6500 8.2134 -2.0020
Cd -2.8798 -2.8188 -1.9943
Cd -0.1097 -13.8509 -1.9866
Cd 1.3295 10.8038 -1.8398
Cd 4.0997 -0.2284 -1.8321
Cd 6.8698 -11.2606 -1.8244
Cd 8.3090 13.3941 -1.6776
Cd 11.0792 2.3620 -1.6699
Cd 13.8493 -8.6702 -1.6623
Cd -16.8444 6.2405 -1.5843
Cd -14.0743 -4.7917 -1.5766
Cd 18.0587 4.9523 -1.5078
Cd -9.8649 8.8308 -1.4221
Cd -7.0948 -2.2013 -1.4144
Cd -4.3246 -13.2335 -1.4067
Cd -2.8854 11.4212 -1.2599
Cd -0.1153 0.3890 -1.2523
Cd 2.6549 -10.6431 -1.2446
Cd 4.0940 14.0115 -1.0978
Cd 6.8642 2.9794 -1.0901
Cd 9.6344 -8.0528 -1.0824
Cd -18.2892 -4.1742 -0.9967
Cd 13.8437 5.5697 -0.9279
Cd 16.6139 -5.4624 -0.9203
Cd -14.0799 9.4483 -0.8423
Cd -11.3097 -1.5839 -0.8346
Cd -8.5396 -12.6161 -0.8269
Cd -7.1004 12.0386 -0.6801
Cd -4.3302 1.0065 -0.6724
Cd -1.5601 -10.0257 -0.6647
Cd -0.1209 14.6290 -0.5179
Cd 2.6493 3.5968 -0.5102
Cd 5.4194 -7.4354 -0.5026
Cd 6.8586 17.2193 -0.3558
Cd 9.6288 6.1872 -0.3481
Cd 12.3989 -4.8450 -0.3404
Cd -15.5247 -0.9665 -0.2547
Cd -12.7545 -11.9986 -0.2470
Cd 16.6083 8.7775 -0.1859
Cd -11.3153 12.6560 -0.1002
Cd -8.5452 1.6239 -0.0926
Cd -5.7750 -9.4083 -0.0849
Cd -4.3358 15.2464 0.0619
Cd -1.5657 4.2142 0.0696
Cd 1.2045 -6.8179 0.0773
Cd 3.9746 -17.8501 0.0850
Cd 2.6437 17.8368 0.2241
Cd 5.4138 6.8046 0.2318
Cd 8.1840 -4.2276 0.2394
Cd 10.9541 -15.2597 0.2471
Cd 12.3933 9.3949 0.3939
Cd 15.1635 -1.6372 0.4016
Cd -12.7601 2.2413 0.4873
Cd -9.9900 -8.7908 0.4950
Cd -8.5508 15.8638 0.6418
Cd -5.7806 4.8317 0.6494
Cd -3.0105 -6.2005 0.6571
Cd -0.2403 -17.2327 0.6648
Cd -1.5713 18.4542 0.8039
Cd 1.1989 7.4220 0.8116
Cd 3.9690 -3.6101 0.8193
Cd 6.7392 -14.6423 0.8270
Cd 8.1784 10.0124 0.9738
Cd 10.9485 -1.0198 0.9815
Cd 13.7187 -12.0519 0.9891
Cd -16.9751 2.8587 1.0671
Cd -14.2049 -8.1734 1.0748
Cd 17.9280 1.5706 1.1436
Cd -9.9956 5.4491 1.2293
Cd -7.2254 -5.5831 1.2370
Cd -4.4552 -16.6152 1.2447
Cd -3.0161 8.0394 1.3915
Cd -0.2459 -2.9927 1.3991
Cd 2.5243 -14.0249 1.4068
Cd 3.9634 10.6298 1.5536
Cd 6.7336 -0.4024 1.5613
Cd 9.5037 -11.4345 1.5690
Cd 10.9429 13.2202 1.7158
Cd 13.7131 2.1880 1.7235
Cd 16.4832 -8.8442 1.7312
Cd -14.2105 6.0665 1.8091
Cd -11.4404 -4.9656 1.8168
Cd -8.6702 -15.9978 1.8245
Cd -7.2310 8.6569 1.9713
Cd -4.4609 -2.3753 1.9790
Cd -1.6907 -13.4074 1.9867
Cd -0.2515 11.2472 2.1335
Cd 2.5186 0.2151 2.1412
Cd 5.2888 -10.8171 2.1488
Cd 6.7280 13.8376 2.2956
Cd 9.4981 2.8054 2.3033
Cd 12.2683 -8.2267 2.3110
Cd -15.6553 -4.3482 2.3967
Cd 16.4776 5.3958 2.4655
Cd -11.4460 9.2743 2.5512
Cd -8.6758 -1.7579 2.5588
Cd -5.9056 -12.7900 2.5665
Cd -4.4665 11.8647 2.7133
Cd -1.6963 0.8325 2.7210
Cd 1.0739 -10.1997 2.7287
Cd 2.5130 14.4550 2.8755
Cd 5.2832 3.4229 2.8832
Cd 8.0534 -7.6093 2.8909
Cd 12.2627 6.0132 3.0453
Cd 15.0329 -5.0190 3.0530
Cd -15.6609 9.8917 3.1310
Cd -12.8907 -1.1404 3.1387
Cd -10.1206 -12.1726 3.1464
Cd -8.6814 12.4821 3.2932
Cd -5.9112 1.4499 3.3009
Cd -3.1411 -9.5822 3.3085
Cd -1.7019 15.0724 3.4553
Cd 1.0683 4.0403 3.4630
Cd 3.8384 -6.9919 3.4707
Cd 5.2776 17.6628 3.6175
Cd 8.0477 6.6306 3.6252
Cd 10.8179 -4.4015 3.6329
Cd -17.1057 -0.5230 3.7185
Cd -14.3355 -11.5552 3.7262
Cd 15.0272 9.2210 3.7874
Cd 17.7974 -1.8112 3.7950
Cd -12.8963 13.0995 3.8730
Cd -10.1262 2.0674 3.8807
Cd -7.3560 -8.9648 3.8884
Cd -5.9169 15.6899 4.0352
Cd -3.1467 4.6577 4.0429
Cd -0.3765 -6.3744 4.0506
Cd 2.3936 -17.4066 4.0582
Cd 1.0626 18.2802 4.1974
Cd 3.8328 7.2481 4.2050
Cd 6.6030 -3.7841 4.2127
Cd 9.3731 -14.8163 4.2204
Cd 10.8123 9.8384 4.3672
Cd 13.5825 -1.1937 4.3749
Cd -14.3411 2.6848 4.4606
Cd -11.5710 -8.3474 4.4682
Cd -7.3616 5.2751 4.6227
Cd -4.5915 -5.7570 4.6304
Cd -1.8213 -16.7892 4.6381
Cd -0.3821 7.8655 4.7849
Cd 2.3880 -3.1667 4.7926
Cd 5.1582 -14.1988 4.8003
Cd 6.5974 10.4558 4.9471
Cd 9.3675 -0.5763 4.9547
Cd 12.1377 -11.6085 4.9624
Cd -15.7859 -7.7299 5.0481
Cd 16.3470 2.0140 5.1169
Cd -11.5766 5.8926 5.2026
Cd -8.8064 -5.1396 5.2103
Cd -6.0363 -16.1717 5.2179
Cd -4.5971 8.4829 5.3647
Cd -1.8269 -2.5492 5.3724
Cd 0.9432 -13.5814 5.3801
Cd 2.3824 11.0733 5.5269
Cd 5.1526 0.0411 5.5346
Cd 7.9227 -10.9910 5.5423
Cd 9.3619 13.6636 5.6891
Cd 12.1321 2.6315 5.6968
Cd 14.9022 -8.4007 5.7044
Cd -15.7915 6.5100 5.7824
Cd -13.0214 -4.5222 5.7901
Cd -8.8120 9.1004 5.9446
Cd -6.0419 -1.9318 5.9523
Cd -3.2717 -12.9640 5.9600
Cd -1.8325 11.6907 6.1068
Cd 0.9376 0.6585 6.1144
Cd 3.7078 -10.3736 6.1221
Cd 5.1470 14.2811 6.2689
Cd 7.9171 3.2489 6.2766
Cd 10.6873 -7.7833 6.2843
Cd -17.2363 -3.9047 6.3700
Cd 14.8966 5.8392 6.4388
Cd -13.0270 9.7178 6.5244
Cd -10.2568 -1.3144 6.5321
Cd -7.4866 -12.3465 6.5398
Cd -6.0475 12.3081 6.6866
Cd -3.2773 1.2760 6.6943
Cd -0.5072 -9.7562 6.7020
Cd 0.9320 14.8985 6.8488
Cd 3.7022 3.8663 6.8565
Cd 6.4723 -7.1658 6.8641
Cd 10.6817 6.4567 7.0186
Cd 13.4518 -4.5755 7.0263
Cd -14.4718 -0.6969 7.1120
Cd -11.7016 -11.7291 7.1197
Cd -10.2624 12.9256 7.2665
Cd -7.4923 1.8934 7.2741
Cd -4.7221 -9.1388 7.2818
Cd -3.2829 15.5159 7.4286
Cd -0.5128 4.4838 7.4363
Cd 2.2574 -6.5484 7.4440
Cd 6.4667 7.0741 7.5985
Cd 9.2369 -3.9581 7.6062
Cd 13.4462 9.6645 7.7606
Cd 16.2164 -1.3677 7.7683
Cd -11.7072 2.5108 7.8540
Cd -8.9370 -8.5213 7.8617
Cd -4.7277 5.1012 8.0162
Cd -1.9575 -5.9310 8.0238
Cd 0.8126 -16.9631 8.0315
Cd 2.2518 7.6915 8.1783
Cd 5.0220 -3.3406 8.1860
Cd 7.7921 -14.3728 8.1937
Cd 9.2313 10.2819 8.3405
Cd 12.0015 -0.7503 8.3482
Cd -15.9221 3.1283 8.4338
Cd -13.1520 -7.9039 8.4415
Cd -8.9426 5.7186 8.5960
Cd -6.1725 -5.3135 8.6037
Cd -3.4023 -16.3457 8.6114
Cd -1.9632 8.3090 8.7582
Cd 0.8070 -2.7232 8.7659
Cd 3.5772 -13.7554 8.7735
Cd 5.0163 10.8993 8.9203
Cd 7.7865 -0.1328 8.9280
Cd 10.5567 -11.1650 8.9357
Cd 14.7660 2.4575 9.0902
Cd -13.1576 6.3360 9.1759
Cd -10.3874 -4.6961 9.1835
Cd -6.1781 8.9264 9.3380
Cd -3.4079 -2.1058 9.3457
Cd -0.6378 -13.1379 9.3534
Cd 0.8014 11.5167 9.5002
Cd 3.5716 0.4846 9.5079
Cd 6.3417 -10.5476 9.5155
Cd 7.7809 14.1071 9.6623
Cd 10.5511 3.0749 9.6700
Cd 13.3212 -7.9572 9.6777
Cd -14.6024 -4.0787 9.7634
Cd -10.3930 9.5438 9.9179
Cd -7.6229 -1.4883 9.9256
Cd -4.8527 -12.5205 9.9332
Cd -3.4135 12.1342 10.0800
Cd -0.6434 1.1020 10.0877
Cd 2.1268 -9.9301 10.0954
Cd 3.5660 14.7245 10.2422
Cd 6.3361 3.6924 10.2499
Cd 9.1063 -7.3398 10.2576
Cd 13.3156 6.2827 10.4120
Cd -11.8378 -0.8709 10.5054
Cd -9.0677 -11.9031 10.5131
Cd -7.6285 12.7516 10.6599
Cd -4.8583 1.7194 10.6676
Cd -2.0882 -9.3127 10.6752
Cd -0.6490 15.3420 10.8220
Cd 2.1212 4.3098 10.8297
Cd 4.8913 -6.7224 10.8374
Cd 9.1007 6.9002 10.9919
Cd 11.8708 -4.1320 10.9996
Cd -9.0733 2.3369 11.2474
Cd -6.3031 -8.6953 11.2551
Cd -2.0938 4.9272 11.4096
Cd 0.6764 -6.1049 11.4173
Cd 4.8857 7.5176 11.5717
Cd 7.6559 -3.5146 11.5794
Cd 14.6354 -0.9242 11.7416
Cd -13.2882 2.9543 11.8273
Cd -10.5181 -8.0779 11.8349
Cd -6.3087 5.5447 11.9894
Cd -3.5386 -5.4875 11.9971
Cd 0.6708 8.1350 12.1516
Cd 3.4409 -2.8971 12.1593
Cd 7.6503 10.7254 12.3138
Cd 10.4204 -0.3068 12.3214
Cd -10.5237 6.1621 12.5693
Cd -7.7535 -4.8701 12.5770
Cd -3.5442 8.7524 12.7314
Cd -0.7740 -2.2797 12.7391
Cd 1.9962 -13.3119 12.7468
Cd 3.4353 11.3428 12.8936
Cd 6.2055 0.3106 12.9013
Cd 13.1850 2.9010 13.0635
Cd -11.9684 -4.2526 13.1568
Cd -7.7591 9.3699 13.3113
Cd -4.9889 -1.6623 13.3190
Cd -2.2188 -12.6945 13.3267
Cd -0.7796 11.9602 13.4735
Cd 1.9905 0.9281 13.4811
Cd 4.7607 -10.1041 13.4888
Cd 8.9700 3.5184 13.6433
Cd -9.2039 -1.0449 13.8988
Cd -2.2244 1.5455 14.0610
Cd 0.5458 -9.4867 14.0687
Cd 4.7551 4.1358 14.2232
Cd 7.5253 -6.8963 14.2308
Cd -6.4393 2.1629 14.6408
Cd -3.6692 -8.8692 14.6485
Cd 0.5402 4.7533 14.8030
Cd 3.3103 -6.2789 14.8107
Cd 7.5197 7.3436 14.9652
Cd 10.2898 -3.6885 14.9729
Cd -10.6543 2.7803 15.2207
Cd -3.6748 5.3707 15.3829
Cd -0.9046 -5.6615 15.3905
Cd 3.3047 7.9611 15.5450
Cd 6.0749 -3.0711 15.5527
Cd -7.8897 5.9881 15.9627
Cd -5.1196 -5.0440 15.9704
Cd -0.9102 8.5785 16.1249
Cd 1.8599 -2.4537 16.1326
Cd 8.8394 0.1367 16.2947
Cd -2.3550 -1.8362 16.7124
Cd 4.6245 0.7541 16.8746
Cd -6.5700 -1.2188 17.2923
Cd 0.4095 1.3715 17.4544
Cd -3.8054 1.9890 18.0343
Se 3.8054 -1.9890 -18.0343
Se -0.4095 -1.3715 -17.4544
Se 6.5700 1.2188 -17.2923
Se -4.6245 -0.7541 -16.8746
Se 2.3550 1.8362 -16.7124
Se -8.8394 -0.1367 -16.2947
Se -1.8599 2.4537 -16.1326
Se 0.9102 -8.5785 -16.1249
Se 5.1196 5.0440 -15.9704
Se 7.8897 -5.9881 -15.9627
Se -6.0749 3.0711 -15.5527
Se -3.3047 -7.9611 -15.5450
Se 0.9046 5.6615 -15.3905
Se 3.6748 -5.3707 -15.3829
Se 10.6543 -2.7803 -15.2207
Se -10.2898 3.6885 -14.9729
Se -7.5197 -7.3436 -14.9652
Se -3.3103 6.2789 -14.8107
Se -0.5402 -4.7533 -14.8030
Se 3.6692 8.8692 -14.6485
Se 6.4393 -2.1629 -14.6408
Se -7.5253 6.8963 -14.2308
Se -4.7551 -4.1358 -14.2232
Se -0.5458 9.4867 -14.0687
Se 2.2244 -1.5455 -14.0610
Se 9.2039 1.0449 -13.8988
Se -8.9700 -3.5184 -13.6433
Se -4.7607 10.1041 -13.4888
Se -1.9905 -0.9281 -13.4811
Se 0.7796 -11.9602 -13.4735
Se 2.2188 12.6945 -13.3267
Se 4.9889 1.6623 -13.3190
Se 7.7591 -9.3699 -13.3113
Se 11.9684 4.2526 -13.1568
Se -13.1850 -2.9010 -13.0635
Se -6.2055 -0.3106 -12.9013
Se -3.4353 -11.3428 -12.8936
Se -1.9962 13.3119 -12.7468
Se 0.7740 2.2797 -12.7391
Se 3.5442 -8.7524 -12.7314
Se 7.7535 4.8701 -12.5770
Se 10.5237 -6.1621 -12.5693
Se -10.4204 0.3068 -12.3214
Se -7.6503 -10.7254 -12.3138
Se -3.4409 2.8971 -12.1593
Se -0.6708 -8.1350 -12.1516
Se 3.5386 5.4875 -11.9971
Se 6.3087 -5.5447 -11.9894
Se 10.5181 8.0779 -11.8349
Se 13.2882 -2.9543 -11.8273
Se -14.6354 0.9242 -11.7416
Se -7.6559 3.5146 -11.5794
Se -4.8857 -7.5176 -11.5717
Se -0.6764 6.1049 -11.4173
Se 2.0938 -4.9272 -11.4096
Se 6.3031 8.6953 -11.2551
Se 9.0733 -2.3369 -11.2474
Se -11.8708 4.1320 -10.9996
Se -9.1007 -6.9002 -10.9919
Se -4.8913 6.7224 -10.8374
Se -2.1212 -4.3098 -10.8297
Se 0.6490 -15.3420 -10.8220
Se 2.0882 9.3127 -10.6752
Se 4.8583 -1.7194 -10.6676
Se 7.6285 -12.7516 -10.6599
Se 9.0677 11.9031 -10.5131
Se 11.8378 0.8709 -10.5054
Se -13.3156 -6.2827 -10.4120
Se -9.1063 7.3398 -10.2576
Se -6.3361 -3.6924 -10.2499
Se -3.5660 -14.7245 -10.2422
Se -2.1268 9.9301 -10.0954
Se 0.6434 -1.1020 -10.0877
Se 3.4135 -12.1342 -10.0800
Se 4.8527 12.5205 -9.9332
Se 7.6229 1.4883 -9.9256
Se 10.3930 -9.5438 -9.9179
Se 14.6024 4.0787 -9.7634
Se -13.3212 7.9572 -9.6777
Se -10.5511 -3.0749 -9.6700
Se -7.7809 -14.1071 -9.6623
Se -6.3417 10.5476 -9.5155
Se -3.5716 -0.4846 -9.5079
Se -0.8014 -11.5167 -9.5002
Se 0.6378 13.1379 -9.3534
Se 3.4079 2.1058 -9.3457
Se 6.1781 -8.9264 -9.3380
Se 10.3874 4.6961 -9.1835
Se 13.1576 -6.3360 -9.1759
Se -14.7660 -2.4575 -9.0902
Se -10.5567 11.1650 -8.9357
Se -7.7865 0.1328 -8.9280
Se -5.0163 -10.8993 -8.9203
Se -3.5772 13.7554 -8.7735
Se -0.8070 2.7232 -8.7659
Se 1.9632 -8.3090 -8.7582
Se 3.4023 16.3457 -8.6114
Se 6.1725 5.3135 -8.6037
Se 8.9426 -5.7186 -8.5960
Se 13.1520 7.9039 -8.4415
Se 15.9221 -3.1283 -8.4338
Se -12.0015 0.7503 -8.3482
Se -9.2313 -10.2819 -8.3405
Se -7.7921 14.3728 -8.1937
Se -5.0220 3.3406 -8.1860
Se -2.2518 -7.6915 -8.1783
Se -0.8126 16.9631 -8.0315
Se 1.9575 5.9310 -8.0238
Se 4.7277 -5.1012 -8.0162
Se 8.9370 8.5213 -7.8617
Se 11.7072 -2.5108 -7.8540
Se -16.2164 1.3677 -7.7683
Se -13.4462 -9.6645 -7.7606
Se -9.2369 3.9581 -7.6062
Se -6.4667 -7.0741 -7.5985
Se -2.2574 6.5484 -7.4440
Se 0.5128 -4.4838 -7.4363
Se 3.2829 -15.5159 -7.4286
Se 4.7221 9.1388 -7.2818
Se 7.4923 -1.8934 -7.2741
Se 10.2624 -12.9256 -7.2665
Se 11.7016 11.7291 -7.1197
Se 14.4718 0.6969 -7.1120
Se -13.4518 4.5755 -7.0263
Se -10.6817 -6.4567 -7.0186
Se -6.4723 7.1658 -6.8641
Se -3.7022 -3.8663 -6.8565
Se -0.9320 -14.8985 -6.8488
Se 0.5072 9.7562 -6.7020
Se 3.2773 -1.2760 -6.6943
Se 6.0475 -12.3081 -6.6866
Se 7.4866 12.3465 -6.5398
Se 10.2568 1.3144 -6.5321
Se 13.0270 -9.7178 -6.5244
Se -14.8966 -5.8392 -6.4388
Se 17.2363 3.9047 -6.3700
Se -10.6873 7.7833 -6.2843
Se -7.9171 -3.2489 -6.2766
Se -5.1470 -14.2811 -6.2689
Se -3.7078 10.3736 -6.1221
Se -0.9376 -0.6585 -6.1144
Se 1.8325 -11.6907 -6.1068
Se 3.2717 12.9640 -5.9600
Se 6.0419 1.9318 -5.9523
Se 8.8120 -9.1004 -5.9446
Se 13.0214 4.5222 -5.7901
Se 15.7915 -6.5100 -5.7824
Se -14.9022 8.4007 -5.7044
Se -12.1321 -2.6315 -5.6968
Se -9.3619 -13.6636 -5.6891
Se -7.9227 10.9910 -5.5423
Se -5.1526 -0.0411 -5.5346
Se -2.3824 -11.0733 -5.5269
Se -0.9432 13.5814 -5.3801
Se 1.8269 2.5492 -5.3724
Se 4.5971 -8.4829 -5.3647
Se 6.0363 16.1717 -5.2179
Se 8.8064 5.1396 -5.2103
Se 11.5766 -5.8926 -5.2026
Se -16.3470 -2.0140 -5.1169
Se 15.7859 7.7299 -5.0481
Se -12.1377 11.6085 -4.9624
Se -9.3675 0.5763 -4.9547
Se -6.5974 -10.4558 -4.9471
Se -5.1582 14.1988 -4.8003
Se -2.3880 3.1667 -4.7926
Se 0.3821 -7.8655 -4.7849
Se 1.8213 16.7892 -4.6381
Se 4.5915 5.7570 -4.6304
Se 7.3616 -5.2751 -4.6227
Se 11.5710 8.3474 -4.4682
Se 14.3411 -2.6848 -4.4606
Se -13.5825 1.1937 -4.3749
Se -10.8123 -9.8384 -4.3672
Se -9.3731 14.8163 -4.2204
Se -6.6030 3.7841 -4.2127
Se -3.8328 -7.2481 -4.2050
Se -1.0626 -18.2802 -4.1974
Se -2.3936 17.4066 -4.0582
Se 0.3765 6.3744 -4.0506
Se 3.1467 -4.6577 -4.0429
Se 5.9169 -15.6899 -4.0352
Se 7.3560 8.9648 -3.8884
Se 10.1262 -2.0674 -3.8807
Se 12.8963 -13.0995 -3.8730
Se -17.7974 1.8112 -3.7950
Se -15.0272 -9.2210 -3.7874
Se 14.3355 11.5552 -3.7262
Se 17.1057 0.5230 -3.7185
Se -10.8179 4.4015 -3.6329
Se -8.0477 -6.6306 -3.6252
Se -5.2776 -17.6628 -3.6175
Se -3.8384 6.9919 -3.4707
Se -1.0683 -4.0403 -3.4630
Se 1.7019 -15.0724 -3.4553
Se 3.1411 9.5822 -3.3085
Se 5.9112 -1.4499 -3.3009
Se 8.6814 -12.4821 -3.2932
Se 10.1206 12.1726 -3.1464
Se 12.8907 1.1404 -3.1387
Se 15.6609 -9.8917 -3.1310
Se -15.0329 5.0190 -3.0530
Se -12.2627 -6.0132 -3.0453
Se -8.0534 7.6093 -2.8909
Se -5.2832 -3.4229 -2.8832
Se -2.5130 -14.4550 -2.8755
Se -1.0739 10.1997 -2.7287
Se 1.6963 -0.8325 -2.7210
Se 4.4665 -11.8647 -2.7133
Se 5.9056 12.7900 -2.5665
Se 8.6758 1.7579 -2.5588
Se 11.4460 -9.2743 -2.5512
Se -16.4776 -5.3958 -2.4655
Se 15.6553 4.3482 -2.3967
Se -12.2683 8.2267 -2.3110
Se -9.4981 -2.8054 -2.3033
Se -6.7280 -13.8376 -2.2956
Se -5.2888 10.8171 -2.1488
Se -2.5186 -0.2151 -2.1412
Se 0.2515 -11.2472 -2.1335
Se 1.6907 13.4074 -1.9867
Se 4.4609 2.3753 -1.9790
Se 7.2310 -8.6569 -1.9713
Se 8.6702 15.9978 -1.8245
Se 11.4404 4.9656 -1.8168
Se 14.2105 -6.0665 -1.8091
Se -16.4832 8.8442 -1.7312
Se -13.7131 -2.1880 -1.7235
Se -10.9429 -13.2202 -1.7158
Se -9.5037 11.4345 -1.5690
Se -6.7336 0.4024 -1.5613
Se -3.9634 -10.6298 -1.5536
Se -2.5243 14.0249 -1.4068
Se 0.2459 2.9927 -1.3991
Se 3.0161 -8.0394 -1.3915
Se 4.4552 16.6152 -1.2447
Se 7.2254 5.5831 -1.2370
Se 9.9956 -5.4491 -1.2293
Se -17.9280 -1.5706 -1.1436
Se 14.2049 8.1734 -1.0748
Se 16.9751 -2.8587 -1.0671
Se -13.7187 12.0519 -0.9891
Se -10.9485 1.0198 -0.9815
Se -8.1784 -10.0124 -0.9738
Se -6.7392 14.6423 -0.8270
Se -3.9690 3.6101 -0.8193
Se -1.1989 -7.4220 -0.8116
Se 1.5713 -18.4542 -0.8039
Se 0.2403 17.2327 -0.6648
Se 3.0105 6.2005 -0.6571
Se 5.7806 -4.8317 -0.6494
Se 8.5508 -15.8638 -0.6418
Se 9.9900 8.7908 -0.4950
Se 12.7601 -2.2413 -0.4873
Se -15.1635 1.6372 -0.4016
Se -12.3933 -9.3949 -0.3939
Se -10.9541 15.2597 -0.2471
Se -8.1840 4.2276 -0.2394
Se -5.4138 -6.8046 -0.2318
Se -2.6437 -17.8368 -0.2241
Se -3.9746 17.8501 -0.0850
Se -1.2045 6.8179 -0.0773
Se 1.5657 -4.2142 -0.0696
Se 4.3358 -15.2464 -0.0619
Se 5.7750 9.4083 0.0849
Se 8.5452 -1.6239 0.0926
Se 11.3153 -12.6560 0.1002
Se -16.6083 -8.7775 0.1859
Se 12.7545 11.9986 0.2470
Se 15.5247 0.9665 0.2547
Se -12.3989 4.8450 0.3404
Se -9.6288 -6.1872 0.3481
Se -6.8586 -17.2193 0.3558
Se -5.4194 7.4354 0.5026
Se -2.6493 -3.5968 0.5102
Se 0.1209 -14.6290 0.5179
Se 1.5601 10.0257 0.6647
Se 4.3302 -1.0065 0.6724
Se 7.1004 -12.0386 0.6801
Se 8.5396 12.6161 0.8269
Se 11.3097 1.5839 0.8346
Se 14.0799 -9.4483 0.8423
Se -16.6139 5.4624 0.9203
Se -13.8437 -5.5697 0.9279
Se 18.2892 4.1742 0.9967
Se -9.6344 8.0528 1.0824
Se -6.8642 -2.9794 1.0901
Se -4.0940 -14.0115 1.0978
Se -2.6549 10.6431 1.2446
Se 0.1153 -0.3890 1.2523
Se 2.8854 -11.4212 1.2599
Se 4.3246 13.2335 1.4067
Se 7.0948 2.2013 1.4144
Se 9.8649 -8.8308 1.4221
Se -18.0587 -4.9523 1.5078
Se 14.0743 4.7917 1.5766
Se 16.8444 -6.2405 1.5843
Se -13.8493 8.6702 1.6623
Se -11.0792 -2.3620 1.6699
Se -8.3090 -13.3941 1.6776
Se -6.8698 11.2606 1.8244
Se -4.0997 0.2284 1.8321
Se -1.3295 -10.8038 1.8398
Se 0.1097 13.8509 1.9866
Se 2.8798 2.8188 1.9943
Se 5.6500 -8.2134 2.0020
Se 7.0892 16.4413 2.1488
Se 9.8593 5.4091 2.1564
Se 12.6295 -5.6231 2.1641
Se -15.2941 -1.7445 2.2498
Se -12.5239 -12.7767 2.2575
Se 16.8388 7.9995 2.3186
Se -11.0848 11.8780 2.4043
Se -8.3146 0.8458 2.4120
Se -5.5444 -10.1863 2.4196
Se -4.1053 14.4683 2.5664
Se -1.3351 3.4362 2.5741
Se 1.4351 -7.5960 2.5818
Se 2.8742 17.0587 2.7286
Se 5.6444 6.0265 2.7363
Se 8.4146 -5.0056 2.7440
Se 12.6239 8.6169 2.8985
Se 15.3941 -2.4153 2.9061
Se -12.5295 1.4633 2.9918
Se -9.7594 -9.5689 2.9995
Se -8.3202 15.0858 3.1463
Se -5.5500 4.0536 3.1540
Se -2.7799 -6.9785 3.1617
Se -0.0097 -18.0107 3.1693
Se -1.3407 17.6761 3.3085
Se 1.4294 6.6440 3.3161
Se 4.1996 -4.3882 3.3238
Se 6.9698 -15.4204 3.3315
Se 8.4089 9.2343 3.4783
Se 11.1791 -1.7978 3.4860
Se -16.7445 2.0807 3.5717
Se -13.9743 -8.9515 3.5793
Se 18.1586 0.7925 3.6482
Se -9.7650 4.6710 3.7338
Se -6.9948 -6.3611 3.7415
Se -4.2247 -17.3933 3.7492
Se -2.7855 7.2614 3.8960
Se -0.0153 -3.7708 3.9037
Se 2.7548 -14.8029 3.9114
Se 4.1940 9.8517 4.0582
Se 6.9642 -1.1804 4.0658
Se 9.7343 -12.2126 4.0735
Se 11.1735 12.4421 4.2203
Se 13.9437 1.4099 4.2280
Se -13.9799 5.2885 4.3137
Se -11.2098 -5.7437 4.3214
Se -7.0004 7.8788 4.4758
Se -4.2303 -3.1533 4.4835
Se -1.4601 -14.1855 4.4912
Se -0.0209 10.4692 4.6380
Se 2.7492 -0.5630 4.6457
Se 5.5194 -11.5951 4.6534
Se 6.9586 13.0595 4.8002
Se 9.7287 2.0274 4.8079
Se 12.4989 -9.0048 4.8155
Se -15.4247 -5.1263 4.9012
Se 16.7082 4.6177 4.9700
Se -11.2154 8.4963 5.0557
Se -8.4452 -2.5359 5.0634
Se -5.6751 -13.5681 5.0711
Se -4.2359 11.0866 5.2179
Se -1.4657 0.0544 5.2255
Se 1.3044 -10.9777 5.2332
Se 2.7436 13.6770 5.3800
Se 5.5138 2.6448 5.3877
Se 8.2839 -8.3874 5.3954
Se 12.4933 5.2351 5.5499
Se 15.2634 -5.7970 5.5576
Se -15.4303 9.1137 5.6355
Se -12.6602 -1.9185 5.6432
Se -9.8900 -12.9506 5.6509
Se -8.4508 11.7040 5.7977
Se -5.6807 0.6719 5.8054
Se -2.9105 -10.3603 5.8131
Se -1.4713 14.2944 5.9599
Se 1.2988 3.2622 5.9676
Se 4.0690 -7.7699 5.9752
Se 5.5082 16.8847 6.1220
Se 8.2783 5.8526 6.1297
Se 11.0485 -5.1796 6.1374
Se -16.8751 -1.3010 6.2231
Se 15.2578 8.4429 6.2919
Se -12.6658 12.3215 6.3776
Se -9.8956 1.2893 6.3852
Se -7.1255 -9.7429 6.3929
Se -5.6863 14.9118 6.5397
Se -2.9161 3.8797 6.5474
Se -0.1460 -7.1525 6.5551
Se 1.2932 17.5022 6.7019
Se 4.0634 6.4700 6.7096
Se 6.8335 -4.5622 6.7173
Se 11.0429 9.0604 6.8717
Se 13.8130 -1.9718 6.8794
Se -14.1106 1.9067 6.9651
Se -11.3404 -9.1254 6.9728
Se -7.1311 4.4971 7.1273
Se -4.3609 -6.5351 7.1349
Se -0.1516 7.0874 7.2894
Se 2.6186 -3.9447 7.2971
Se 5.3888 -14.9769 7.3048
Se 6.8279 9.6778 7.4516
Se 9.5981 -1.3544 7.4593
Se 16.5776 1.2360 7.6214
Se -11.3460 5.1145 7.7071
Se -8.5758 -5.9176 7.7148
Se -4.3665 7.7049 7.8693
Se -1.5963 -3.3273 7.8770
Se 1.1738 -14.3595 7.8846
Se 2.6130 10.2952 8.0314
Se 5.3831 -0.7369 8.0391
Se 8.1533 -11.7691 8.0468
Se 9.5925 12.8856 8.1936
Se 12.3626 1.8534 8.2013
Se -15.5610 5.7319 8.2870
Se -12.7908 -5.3002 8.2946
Se -8.5815 8.3223 8.4491
Se -5.8113 -2.7099 8.4568
Se -3.0411 -13.7420 8.4645
Se -1.6020 10.9126 8.6113
Se 1.1682 -0.1195 8.6190
Se 3.9384 -11.1517 8.6267
Se 5.3775 13.5030 8.7734
Se 8.1477 2.4708 8.7811
Se 10.9179 -8.5613 8.7888
Se 15.1272 5.0612 8.9433
Se -12.7964 8.9397 9.0290
Se -10.0262 -2.0924 9.0367
Se -7.2561 -13.1246 9.0443
Se -5.8169 11.5301 9.1911
Se -3.0467 0.4979 9.1988
Se -0.2766 -10.5342 9.2065
Se 1.1626 14.1204 9.3533
Se 3.9328 3.0883 9.3610
Se 6.7029 -7.9439 9.3687
Se 10.9123 5.6786 9.5231
Se 13.6824 -5.3535 9.5308
Se -14.2412 -1.4750 9.6165
Se -10.0318 12.1475 9.7710
Se -7.2617 1.1153 9.7787
Se -4.4915 -9.9168 9.7864
Se -3.0523 14.7379 9.9331
Se -0.2822 3.7057 9.9408
Se 2.4880 -7.3265 9.9485
Se 6.6973 6.2961 10.1030
Se 9.4675 -4.7361 10.1107
Se -11.4766 1.7328 10.3585
Se -8.7065 -9.2994 10.3662
Se -4.4971 4.3231 10.5207
Se -1.7270 -6.7090 10.5284
Se 2.4824 6.9135 10.6828
Se 5.2525 -4.1187 10.6905
Se 9.4619 9.5038 10.8450
Se 12.2320 -1.5283 10.8527
Se -8.7121 4.9406 11.1005
Se -5.9419 -6.0916 11.1082
Se -1.7326 7.5309 11.2627
Se 1.0376 -3.5012 11.2704
Se 3.8077 -14.5334 11.2781
Se 5.2469 10.1213 11.4249
Se 8.0171 -0.9109 11.4325
Se -12.9270 5.5580 11.6804
Se -10.1569 -5.4742 11.6881
Se -5.9475 8.1483 11.8425
Se -3.1774 -2.8838 11.8502
Se -0.4072 -13.9160 11.8579
Se 1.0320 10.7387 12.0047
Se 3.8021 -0.2935 12.0124
Se 6.5723 -11.3256 12.0201
Se 10.7816 2.2969 12.1746
Se -10.1625 8.7658 12.4224
Se -7.3923 -2.2664 12.4301
Se -4.6221 -13.2985 12.4378
Se -3.1830 11.3561 12.5846
Se -0.4128 0.3240 12.5922
Se 2.3574 -10.7082 12.5999
Se 6.5667 2.9143 12.7544
Se 9.3368 -8.1178 12.7621
Se -11.6072 -1.6490 13.0099
Se -4.6278 0.9414 13.1721
Se -1.8576 -10.0908 13.1798
Se 2.3517 3.5317 13.3343
Se 5.1219 -7.5004 13.3419
Se 9.3312 6.1221 13.4964
Se 12.1014 -4.9101 13.5041
Se -8.8427 1.5588 13.7519
Se -6.0725 -9.4733 13.7596
Se -1.8632 4.1492 13.9141
Se 0.9070 -6.8830 13.9218
Se 5.1163 6.7395 14.0763
Se 7.8865 -4.2926 14.0840
Se -6.0781 4.7666 14.4940
Se -3.3080 -6.2656 14.5016
Se 0.9014 7.3570 14.6561
Se 3.6715 -3.6752 14.6638
Se 10.6510 -1.0849 14.8260
Se -7.5229 -5.6481 15.0815
Se -3.3136 7.9744 15.2360
Se -0.5434 -3.0578 15.2437
Se 6.4361 -0.4674 15.4058
Se -4.7584 -2.4403 15.8235
Se 2.2211 0.1500 15.9857
Se 9.2006 2.7404 16.1478
Se -8.9733 -1.8229 16.4034
Se -1.9938 0.7674 16.5655
Se 4.9857 3.3578 16.7277
Se -6.2088 1.3849 17.1454
Se 0.7707 3.9752 17.3075
Se -3.4442 4.5926 17.8874
