690
Model zinc-blende CdSe nanocrystal CdSe-QD-B (spherical cut, no ligands), angstrom
Cd -3.6668 0.8745 -15.9853
Cd 0.1799 -3.8240 -15.6794
Cd -3.3708 5.0990 -15.2439
Cd 0.4759 0.4004 -14.9380
Cd 4.3226 -4.2981 -14.6321
Cd 0.7719 4.6249 -14.1967
Cd -6.6716 -1.4548 -13.9781
Cd 4.6186 -0.0736 -13.8908
Cd -2.8249 -6.1533 -13.6722
Cd 1.0679 8.8494 -13.4553
Cd -6.3756 2.7696 -13.2368
Cd 4.9146 4.1508 -13.1494
Cd -2.5289 -1.9289 -12.9309
Cd 8.7612 -0.5477 -12.8435
Cd 1.3178 -6.6274 -12.6249
Cd -6.0796 6.9941 -12.4955
Cd 5.2106 8.3753 -12.4081
Cd -2.2329 2.2956 -12.1895
Cd 9.0572 3.6768 -12.1021
Cd -9.6763 -3.7842 -11.9710
Cd 1.6138 -2.4029 -11.8836
Cd -5.8297 -8.4827 -11.6651
Cd 5.4604 -7.1014 -11.5777
Cd -1.9369 6.5200 -11.4482
Cd -9.3803 0.4403 -11.2296
Cd 1.9098 1.8215 -11.1423
Cd -5.5337 -4.2582 -10.9237
Cd 5.7565 -2.8770 -10.8363
Cd -1.6409 10.7445 -10.7068
Cd -1.6870 -8.9567 -10.6178
Cd 9.6031 -7.5755 -10.5304
Cd -9.0843 4.6647 -10.4883
Cd 2.2058 6.0460 -10.4009
Cd -5.2377 -0.0338 -10.1824
Cd 6.0525 1.3475 -10.0950
Cd -1.3910 -4.7323 -9.8765
Cd 9.8991 -3.3510 -9.7891
Cd -8.7883 8.8892 -9.7470
Cd 2.5018 10.2704 -9.6596
Cd 2.4557 -9.4308 -9.5705
Cd -4.9417 4.1907 -9.4410
Cd 6.3485 5.5719 -9.3537
Cd -12.3851 -1.8890 -9.2225
Cd -1.0950 -0.5078 -9.1351
Cd 10.1951 0.8734 -9.0477
Cd -8.5385 -6.5876 -8.9166
Cd 2.7517 -5.2063 -8.8292
Cd -4.6457 8.4151 -8.6997
Cd 6.6445 9.7964 -8.6123
Cd -4.6918 -11.2861 -8.6106
Cd 6.5983 -9.9048 -8.5233
Cd -12.0891 2.3354 -8.4812
Cd -0.7990 3.7166 -8.3938
Cd 10.4911 5.0979 -8.3064
Cd -8.2425 -2.3631 -8.1752
Cd 3.0477 -0.9819 -8.0878
Cd 14.3378 0.3994 -8.0005
Cd -4.3497 12.6396 -7.9584
Cd -4.3958 -7.0616 -7.8693
Cd 6.8943 -5.6804 -7.7819
Cd -11.7931 6.5599 -7.7398
Cd -0.5030 7.9411 -7.6524
Cd 10.7871 9.3223 -7.5651
Cd -0.5491 -11.7601 -7.5634
Cd -7.9465 1.8614 -7.4339
Cd 3.3437 3.2426 -7.3465
Cd -4.0998 -2.8372 -7.1280
Cd 7.1903 -1.4559 -7.0406
Cd -0.2070 12.1655 -6.9111
Cd -11.5433 -8.9169 -6.9094
Cd -0.2531 -7.5357 -6.8220
Cd 11.0370 -6.1544 -6.7347
Cd -7.6505 6.0858 -6.6926
Cd 3.6397 7.4670 -6.6052
Cd 3.5935 -12.2342 -6.5161
Cd -15.0939 0.0061 -6.4740
Cd -3.8038 1.3873 -6.3866
Cd 7.4863 2.7685 -6.2992
Cd -11.2473 -4.6924 -6.1681
Cd 0.0429 -3.3112 -6.0807
Cd 11.3330 -1.9300 -5.9933
Cd -7.3545 10.3103 -5.9512
Cd 3.9357 11.6915 -5.8638
Cd -7.4006 -9.3909 -5.8622
Cd 3.8895 -8.0097 -5.7748
Cd -14.7979 4.2305 -5.7327
Cd -3.5078 5.6118 -5.6453
Cd 7.7823 6.9930 -5.5579
Cd -3.5539 -14.0894 -5.5562
Cd 7.7362 -12.7082 -5.4688
Cd -10.9513 -0.4680 -5.4267
Cd 0.3389 0.9132 -5.3394
Cd 11.6290 2.2945 -5.2520
Cd -7.1046 -5.1665 -5.1208
Cd 4.1855 -3.7853 -5.0334
Cd 15.4757 -2.4040 -4.9460
Cd -3.2118 9.8362 -4.9039
Cd 8.0783 11.2174 -4.8166
Cd -3.2579 -9.8650 -4.8149
Cd 8.0322 -8.4838 -4.7275
Cd -10.6552 3.7565 -4.6854
Cd 0.6349 5.1377 -4.5980
Cd 11.9250 6.5189 -4.5106
Cd 0.5888 -14.5635 -4.5090
Cd -6.8086 -0.9420 -4.3795
Cd 4.4815 0.4392 -4.2921
Cd 15.7717 1.8204 -4.2047
Cd -2.9158 14.0607 -4.1626
Cd -14.2520 -7.0218 -4.1609
Cd -2.9619 -5.6405 -4.0735
Cd 8.3282 -4.2593 -3.9862
Cd -10.3592 7.9809 -3.9441
Cd 0.9309 9.3622 -3.8567
Cd -10.4054 -11.7203 -3.8550
Cd 0.8848 -10.3390 -3.7676
Cd 12.1749 -8.9578 -3.6802
Cd -6.5126 3.2824 -3.6381
Cd 4.7775 4.6636 -3.5508
Cd 4.7314 -15.0376 -3.4617
Cd -13.9560 -2.7973 -3.4196
Cd -2.6659 -1.4161 -3.3322
Cd 8.6242 -0.0349 -3.2448
Cd -10.0632 12.2054 -3.2027
Cd 1.2269 13.5866 -3.1153
Cd -10.1094 -7.4958 -3.1137
Cd 1.1808 -6.1146 -3.0263
Cd 12.4709 -4.7334 -2.9389
Cd -6.2166 7.5069 -2.8968
Cd 5.0736 8.8881 -2.8094
Cd -6.2627 -12.1943 -2.8077
Cd 5.0274 -10.8131 -2.7204
Cd -13.6600 1.4271 -2.6783
Cd -2.3699 2.8084 -2.5909
Cd 8.9202 4.1896 -2.5035
Cd -9.8134 -3.2714 -2.3723
Cd 1.4768 -1.8901 -2.2849
Cd 12.7669 -0.5089 -2.1976
Cd -5.9206 11.7313 -2.1555
Cd 5.3696 13.1126 -2.0681
Cd -5.9667 -7.9699 -2.0664
Cd 5.3234 -6.5886 -1.9790
Cd -13.3640 5.6516 -1.9369
Cd -2.0739 7.0328 -1.8495
Cd 9.2162 8.4140 -1.7621
Cd -2.1200 -12.6684 -1.7605
Cd 9.1701 -11.2872 -1.6731
Cd -9.5174 0.9531 -1.6310
Cd 1.7728 2.3343 -1.5436
Cd 13.0629 3.7155 -1.4562
Cd -5.6707 -3.7454 -1.3251
Cd 5.6194 -2.3642 -1.2377
Cd -13.0680 9.8760 -1.1956
Cd -1.7779 11.2573 -1.1082
Cd -13.1142 -9.8251 -1.1065
Cd 9.5122 12.6385 -1.0208
Cd -1.8240 -8.4439 -1.0191
Cd 9.4661 -7.0627 -0.9317
Cd -9.2214 5.1775 -0.8896
Cd 2.0688 6.5588 -0.8023
Cd 13.3589 7.9400 -0.7149
Cd 2.0226 -13.1424 -0.7132
Cd -5.3747 0.4790 -0.5837
Cd 5.9154 1.8603 -0.4963
Cd -1.4819 15.4817 -0.3669
Cd -12.8182 -5.6007 -0.3652
Cd -1.5280 -4.2195 -0.2778
Cd 9.7621 -2.8382 -0.1904
Cd -8.9254 9.4020 -0.1483
Cd 2.3648 10.7832 -0.0609
Cd -8.9715 -10.2992 -0.0592
Cd 2.3186 -8.9180 0.0281
Cd 13.6088 -7.5368 0.1155
Cd -5.0787 4.7035 0.1576
Cd 6.2114 6.0847 0.2450
Cd -5.1248 -14.9977 0.2467
Cd 6.1653 -13.6165 0.3341
Cd -12.5222 -1.3762 0.3762
Cd -1.2320 0.0050 0.4635
Cd 10.0581 1.3862 0.5509
Cd -8.6294 13.6264 0.5930
Cd 2.6608 15.0077 0.6804
Cd -8.6755 -6.0748 0.6821
Cd 2.6146 -4.6935 0.7695
Cd 13.9048 -3.3123 0.8569
Cd -4.7827 8.9279 0.8990
Cd 6.5074 10.3092 0.9863
Cd -4.8288 -10.7733 0.9880
Cd 6.4613 -9.3920 1.0754
Cd -12.2262 2.8482 1.1175
Cd -0.9360 4.2294 1.2049
Cd 10.3541 5.6107 1.2923
Cd -0.9822 -15.4718 1.2939
Cd -8.3795 -1.8503 1.4234
Cd 2.9106 -0.4691 1.5108
Cd 14.2008 0.9122 1.5982
Cd -4.4867 13.1524 1.6403
Cd 6.8034 14.5336 1.7277
Cd -4.5328 -6.5488 1.7294
Cd 6.7573 -5.1676 1.8167
Cd -11.9302 7.0727 1.8588
Cd -0.6400 8.4539 1.9462
Cd 10.6501 9.8351 2.0336
Cd -0.6862 -11.2473 2.0353
Cd 10.6040 -9.8661 2.1227
Cd -8.0835 2.3742 2.1648
Cd 3.2066 3.7554 2.2522
Cd 14.4968 5.1366 2.3395
Cd 3.1605 -15.9458 2.3412
Cd -15.5269 -3.7056 2.3833
Cd -4.2368 -2.3244 2.4707
Cd 7.0533 -0.9431 2.5581
Cd -11.6342 11.2971 2.6002
Cd -0.3440 12.6783 2.6876
Cd -11.6803 -8.4041 2.6892
Cd -0.3902 -7.0229 2.7766
Cd 10.9000 -5.6416 2.8640
Cd -7.7875 6.5986 2.9061
Cd 3.5026 7.9798 2.9935
Cd -7.8336 -13.1026 2.9952
Cd 3.4565 -11.7214 3.0825
Cd -15.2309 0.5189 3.1247
Cd -3.9408 1.9001 3.2120
Cd 7.3493 3.2813 3.2994
Cd -11.3843 -4.1796 3.4306
Cd -0.0942 -2.7984 3.5180
Cd 11.1960 -1.4172 3.6053
Cd -7.4915 10.8231 3.6474
Cd 3.7986 12.2043 3.7348
Cd -7.5376 -8.8781 3.7365
Cd 3.7525 -7.4969 3.8239
Cd -14.9349 4.7433 3.8660
Cd -3.6448 6.1246 3.9534
Cd 7.6453 7.5058 4.0408
Cd -3.6909 -13.5766 4.0424
Cd 7.5992 -12.1954 4.1298
Cd -11.0883 0.0448 4.1719
Cd 0.2019 1.4260 4.2593
Cd 11.4920 2.8073 4.3467
Cd -7.2416 -4.6537 4.4778
Cd 4.0485 -3.2725 4.5652
Cd 15.3386 -1.8912 4.6526
Cd -3.3488 10.3490 4.6947
Cd 7.9413 11.7302 4.7821
Cd -3.3949 -9.3522 4.7838
Cd 7.8952 -7.9710 4.8712
Cd -10.7923 4.2693 4.9133
Cd 0.4979 5.6505 5.0006
Cd 11.7880 7.0317 5.0880
Cd 0.4517 -14.0507 5.0897
Cd -6.9456 -0.4292 5.2192
Cd 4.3445 0.9520 5.3066
Cd -3.0528 14.5735 5.4361
Cd -3.0989 -5.1277 5.5251
Cd 8.1912 -3.7465 5.6125
Cd -10.4963 8.4937 5.6546
Cd 0.7939 9.8750 5.7420
Cd -10.5424 -11.2075 5.7437
Cd 0.7477 -9.8262 5.8310
Cd 12.0379 -8.4450 5.9184
Cd -6.6496 3.7952 5.9605
Cd 4.6405 5.1764 6.0479
Cd 4.5944 -14.5248 6.1370
Cd -14.0931 -2.2845 6.1791
Cd -2.8029 -0.9033 6.2665
Cd 8.4872 0.4779 6.3538
Cd 1.0899 14.0994 6.4833
Cd -10.2464 -6.9830 6.4850
Cd 1.0437 -5.6018 6.5724
Cd 12.3339 -4.2206 6.6598
Cd -6.3536 8.0197 6.7019
Cd 4.9365 9.4009 6.7892
Cd -6.3997 -11.6815 6.7909
Cd 4.8904 -10.3003 6.8783
Cd -13.7971 1.9399 6.9204
Cd -2.5069 3.3212 7.0078
Cd 8.7832 4.7024 7.0952
Cd -9.9504 -2.7586 7.2263
Cd 1.3397 -1.3773 7.3137
Cd 12.6299 0.0039 7.4011
Cd -6.0576 12.2441 7.4432
Cd 5.2325 13.6253 7.5306
Cd -6.1037 -7.4571 7.5323
Cd 5.1864 -6.0758 7.6196
Cd -2.2109 7.5456 7.7491
Cd 9.0792 8.9268 7.8365
Cd -2.2571 -12.1556 7.8382
Cd 9.0331 -10.7744 7.9256
Cd -9.6544 1.4659 7.9677
Cd 1.6357 2.8471 8.0551
Cd 12.9259 4.2283 8.1424
Cd -5.8077 -3.2326 8.2736
Cd 5.4824 -1.8514 8.3610
Cd -1.9149 11.7701 8.4905
Cd -1.9611 -7.9311 8.5795
Cd 9.3291 -6.5499 8.6669
Cd -9.3584 5.6903 8.7090
Cd 1.9317 7.0716 8.7964
Cd 1.8856 -12.6296 8.8855
Cd -5.5117 0.9918 9.0149
Cd 5.7784 2.3731 9.1023
Cd -1.6651 -3.7067 9.3209
Cd 9.6251 -2.3254 9.4082
Cd -9.0624 9.9148 9.4504
Cd 2.2277 11.2960 9.5377
Cd -9.1085 -9.7864 9.5394
Cd 2.1816 -8.4052 9.6268
Cd -5.2157 5.2163 9.7563
Cd 6.0744 6.5975 9.8437
Cd -12.6592 -0.8634 9.9748
Cd -1.3691 0.5178 10.0622
Cd 9.9211 1.8990 10.1496
Cd -8.8125 -5.5620 10.2808
Cd 2.4776 -4.1807 10.3681
Cd -4.9197 9.4407 10.4976
Cd 6.3704 10.8220 10.5850
Cd -4.9659 -10.2605 10.5867
Cd 6.3243 -8.8792 10.6741
Cd -1.0731 4.7422 10.8035
Cd 10.2171 6.1235 10.8909
Cd -8.5165 -1.3375 11.0221
Cd 2.7736 0.0437 11.1095
Cd -4.6698 -6.0360 11.3280
Cd 6.6203 -4.6548 11.4154
Cd -0.7771 8.9667 11.5449
Cd -0.8232 -10.7345 11.6339
Cd -8.2205 2.8870 11.7634
Cd 3.0696 4.2682 11.8508
Cd -4.3738 -1.8116 12.0694
Cd 6.9163 -0.4303 12.1567
Cd -0.5272 -6.5101 12.3753
Cd -7.9245 7.1114 12.5048
Cd 3.3656 8.4926 12.5922
Cd -4.0778 2.4129 12.8107
Cd 7.2123 3.7941 12.8981
Cd -0.2312 -2.2856 13.1166
Cd 3.6155 -6.9841 13.4225
Cd -3.7818 6.6374 13.5520
Cd 0.0648 1.9388 13.8580
Cd -7.3786 -4.1409 14.0765
Cd 3.9115 -2.7597 14.1639
Cd 0.3608 6.1633 14.5993
Cd -7.0826 0.0836 14.8178
Cd 4.2075 1.4648 14.9052
Cd -3.2360 -4.6149 15.1238
Cd -2.9400 -0.3905 15.8651
Se 2.9400 0.3905 -15.8651
Se 3.2360 4.6149 -15.1238
Se -4.2075 -1.4648 -14.9052
Se 7.0826 -0.0836 -14.8178
Se -0.3608 -6.1633 -14.5993
Se -3.9115 2.7597 -14.1639
Se 7.3786 4.1409 -14.0765
Se -0.0648 -1.9388 -13.8580
Se 3.7818 -6.6374 -13.5520
Se -3.6155 6.9841 -13.4225
Se 0.2312 2.2856 -13.1166
Se -7.2123 -3.7941 -12.8981
Se 4.0778 -2.4129 -12.8107
Se -3.3656 -8.4926 -12.5922
Se 7.9245 -7.1114 -12.5048
Se 0.5272 6.5101 -12.3753
Se -6.9163 0.4303 -12.1567
Se 4.3738 1.8116 -12.0694
Se -3.0696 -4.2682 -11.8508
Se 8.2205 -2.8870 -11.7634
Se 0.8232 10.7345 -11.6339
Se 0.7771 -8.9667 -11.5449
Se -6.6203 4.6548 -11.4154
Se 4.6698 6.0360 -11.3280
Se -2.7736 -0.0437 -11.1095
Se 8.5165 1.3375 -11.0221
Se -10.2171 -6.1235 -10.8909
Se 1.0731 -4.7422 -10.8035
Se -6.3243 8.8792 -10.6741
Se 4.9659 10.2605 -10.5867
Se -6.3704 -10.8220 -10.5850
Se 4.9197 -9.4407 -10.4976
Se -2.4776 4.1807 -10.3681
Se 8.8125 5.5620 -10.2808
Se -9.9211 -1.8990 -10.1496
Se 1.3691 -0.5178 -10.0622
Se 12.6592 0.8634 -9.9748
Se -6.0744 -6.5975 -9.8437
Se 5.2157 -5.2163 -9.7563
Se -2.1816 8.4052 -9.6268
Se 9.1085 9.7864 -9.5394
Se -2.2277 -11.2960 -9.5377
Se 9.0624 -9.9148 -9.4504
Se -9.6251 2.3254 -9.4082
Se 1.6651 3.7067 -9.3209
Se -5.7784 -2.3731 -9.1023
Se 5.5117 -0.9918 -9.0149
Se -1.8856 12.6296 -8.8855
Se -1.9317 -7.0716 -8.7964
Se 9.3584 -5.6903 -8.7090
Se -9.3291 6.5499 -8.6669
Se 1.9611 7.9311 -8.5795
Se 1.9149 -11.7701 -8.4905
Se -5.4824 1.8514 -8.3610
Se 5.8077 3.2326 -8.2736
Se -12.9259 -4.2283 -8.1424
Se -1.6357 -2.8471 -8.0551
Se 9.6544 -1.4659 -7.9677
Se -9.0331 10.7744 -7.9256
Se 2.2571 12.1556 -7.8382
Se -9.0792 -8.9268 -7.8365
Se 2.2109 -7.5456 -7.7491
Se -5.1864 6.0758 -7.6196
Se 6.1037 7.4571 -7.5323
Se -5.2325 -13.6253 -7.5306
Se 6.0576 -12.2441 -7.4432
Se -12.6299 -0.0039 -7.4011
Se -1.3397 1.3773 -7.3137
Se 9.9504 2.7586 -7.2263
Se -8.7832 -4.7024 -7.0952
Se 2.5069 -3.3212 -7.0078
Se 13.7971 -1.9399 -6.9204
Se -4.8904 10.3003 -6.8783
Se 6.3997 11.6815 -6.7909
Se -4.9365 -9.4009 -6.7892
Se 6.3536 -8.0197 -6.7019
Se -12.3339 4.2206 -6.6598
Se -1.0437 5.6018 -6.5724
Se 10.2464 6.9830 -6.4850
Se -1.0899 -14.0994 -6.4833
Se -8.4872 -0.4779 -6.3538
Se 2.8029 0.9033 -6.2665
Se 14.0931 2.2845 -6.1791
Se -4.5944 14.5248 -6.1370
Se -4.6405 -5.1764 -6.0479
Se 6.6496 -3.7952 -5.9605
Se -12.0379 8.4450 -5.9184
Se -0.7477 9.8262 -5.8310
Se 10.5424 11.2075 -5.7437
Se -0.7939 -9.8750 -5.7420
Se 10.4963 -8.4937 -5.6546
Se -8.1912 3.7465 -5.6125
Se 3.0989 5.1277 -5.5251
Se 3.0528 -14.5735 -5.4361
Se -4.3445 -0.9520 -5.3066
Se 6.9456 0.4292 -5.2192
Se -0.4517 14.0507 -5.0897
Se -11.7880 -7.0317 -5.0880
Se -0.4979 -5.6505 -5.0006
Se 10.7923 -4.2693 -4.9133
Se -7.8952 7.9710 -4.8712
Se 3.3949 9.3522 -4.7838
Se -7.9413 -11.7302 -4.7821
Se 3.3488 -10.3490 -4.6947
Se -15.3386 1.8912 -4.6526
Se -4.0485 3.2725 -4.5652
Se 7.2416 4.6537 -4.4778
Se -11.4920 -2.8073 -4.3467
Se -0.2019 -1.4260 -4.2593
Se 11.0883 -0.0448 -4.1719
Se -7.5992 12.1954 -4.1298
Se 3.6909 13.5766 -4.0424
Se -7.6453 -7.5058 -4.0408
Se 3.6448 -6.1246 -3.9534
Se 14.9349 -4.7433 -3.8660
Se -3.7525 7.4969 -3.8239
Se 7.5376 8.8781 -3.7365
Se -3.7986 -12.2043 -3.7348
Se 7.4915 -10.8231 -3.6474
Se -11.1960 1.4172 -3.6053
Se 0.0942 2.7984 -3.5180
Se 11.3843 4.1796 -3.4306
Se -7.3493 -3.2813 -3.2994
Se 3.9408 -1.9001 -3.2120
Se 15.2309 -0.5189 -3.1247
Se -3.4565 11.7214 -3.0825
Se 7.8336 13.1026 -2.9952
Se -3.5026 -7.9798 -2.9935
Se 7.7875 -6.5986 -2.9061
Se -10.9000 5.6416 -2.8640
Se 0.3902 7.0229 -2.7766
Se 11.6803 8.4041 -2.6892
Se 0.3440 -12.6783 -2.6876
Se 11.6342 -11.2971 -2.6002
Se -7.0533 0.9431 -2.5581
Se 4.2368 2.3244 -2.4707
Se 15.5269 3.7056 -2.3833
Se -3.1605 15.9458 -2.3412
Se -14.4968 -5.1366 -2.3395
Se -3.2066 -3.7554 -2.2522
Se 8.0835 -2.3742 -2.1648
Se -10.6040 9.8661 -2.1227
Se 0.6862 11.2473 -2.0353
Se -10.6501 -9.8351 -2.0336
Se 0.6400 -8.4539 -1.9462
Se 11.9302 -7.0727 -1.8588
Se -6.7573 5.1676 -1.8167
Se 4.5328 6.5488 -1.7294
Se -6.8034 -14.5336 -1.7277
Se 4.4867 -13.1524 -1.6403
Se -14.2008 -0.9122 -1.5982
Se -2.9106 0.4691 -1.5108
Se 8.3795 1.8503 -1.4234
Se 0.9822 15.4718 -1.2939
Se -10.3541 -5.6107 -1.2923
Se 0.9360 -4.2294 -1.2049
Se 12.2262 -2.8482 -1.1175
Se -6.4613 9.3920 -1.0754
Se 4.8288 10.7733 -0.9880
Se -6.5074 -10.3092 -0.9863
Se 4.7827 -8.9279 -0.8990
Se -13.9048 3.3123 -0.8569
Se -2.6146 4.6935 -0.7695
Se 8.6755 6.0748 -0.6821
Se -2.6608 -15.0077 -0.6804
Se 8.6294 -13.6264 -0.5930
Se -10.0581 -1.3862 -0.5509
Se 1.2320 -0.0050 -0.4635
Se 12.5222 1.3762 -0.3762
Se -6.1653 13.6165 -0.3341
Se 5.1248 14.9977 -0.2467
Se -6.2114 -6.0847 -0.2450
Se 5.0787 -4.7035 -0.1576
Se -13.6088 7.5368 -0.1155
Se -2.3186 8.9180 -0.0281
Se 8.9715 10.2992 0.0592
Se -2.3648 -10.7832 0.0609
Se 8.9254 -9.4020 0.1483
Se -9.7621 2.8382 0.1904
Se 1.5280 4.2195 0.2778
Se 12.8182 5.6007 0.3652
Se 1.4819 -15.4817 0.3669
Se -5.9154 -1.8603 0.4963
Se 5.3747 -0.4790 0.5837
Se -2.0226 13.1424 0.7132
Se -13.3589 -7.9400 0.7149
Se -2.0688 -6.5588 0.8023
Se 9.2214 -5.1775 0.8896
Se -9.4661 7.0627 0.9317
Se 1.8240 8.4439 1.0191
Se -9.5122 -12.6385 1.0208
Se 13.1142 9.8251 1.1065
Se 1.7779 -11.2573 1.1082
Se 13.0680 -9.8760 1.1956
Se -5.6194 2.3642 1.2377
Se 5.6707 3.7454 1.3251
Se -13.0629 -3.7155 1.4562
Se -1.7728 -2.3343 1.5436
Se 9.5174 -0.9531 1.6310
Se -9.1701 11.2872 1.6731
Se 2.1200 12.6684 1.7605
Se -9.2162 -8.4140 1.7621
Se 2.0739 -7.0328 1.8495
Se 13.3640 -5.6516 1.9369
Se -5.3234 6.5886 1.9790
Se 5.9667 7.9699 2.0664
Se -5.3696 -13.1126 2.0681
Se 5.9206 -11.7313 2.1555
Se -12.7669 0.5089 2.1976
Se -1.4768 1.8901 2.2849
Se 9.8134 3.2714 2.3723
Se -8.9202 -4.1896 2.5035
Se 2.3699 -2.8084 2.5909
Se 13.6600 -1.4271 2.6783
Se -5.0274 10.8131 2.7204
Se 6.2627 12.1943 2.8077
Se -5.0736 -8.8881 2.8094
Se 6.2166 -7.5069 2.8968
Se -12.4709 4.7334 2.9389
Se -1.1808 6.1146 3.0263
Se 10.1094 7.4958 3.1137
Se -1.2269 -13.5866 3.1153
Se 10.0632 -12.2054 3.2027
Se -8.6242 0.0349 3.2448
Se 2.6659 1.4161 3.3322
Se 13.9560 2.7973 3.4196
Se -4.7314 15.0376 3.4617
Se -4.7775 -4.6636 3.5508
Se 6.5126 -3.2824 3.6381
Se -12.1749 8.9578 3.6802
Se -0.8848 10.3390 3.7676
Se 10.4054 11.7203 3.8550
Se -0.9309 -9.3622 3.8567
Se 10.3592 -7.9809 3.9441
Se -8.3282 4.2593 3.9862
Se 2.9619 5.6405 4.0735
Se 14.2520 7.0218 4.1609
Se 2.9158 -14.0607 4.1626
Se -15.7717 -1.8204 4.2047
Se -4.4815 -0.4392 4.2921
Se 6.8086 0.9420 4.3795
Se -0.5888 14.5635 4.5090
Se -11.9250 -6.5189 4.5106
Se -0.6349 -5.1377 4.5980
Se 10.6552 -3.7565 4.6854
Se -8.0322 8.4838 4.7275
Se 3.2579 9.8650 4.8149
Se -8.0783 -11.2174 4.8166
Se 3.2118 -9.8362 4.9039
Se -15.4757 2.4040 4.9460
Se -4.1855 3.7853 5.0334
Se 7.1046 5.1665 5.1208
Se -11.6290 -2.2945 5.2520
Se -0.3389 -0.9132 5.3394
Se 10.9513 0.4680 5.4267
Se -7.7362 12.7082 5.4688
Se 3.5539 14.0894 5.5562
Se -7.7823 -6.9930 5.5579
Se 3.5078 -5.6118 5.6453
Se 14.7979 -4.2305 5.7327
Se -3.8895 8.0097 5.7748
Se 7.4006 9.3909 5.8622
Se -3.9357 -11.6915 5.8638
Se 7.3545 -10.3103 5.9512
Se -11.3330 1.9300 5.9933
Se -0.0429 3.3112 6.0807
Se 11.2473 4.6924 6.1681
Se -7.4863 -2.7685 6.2992
Se 3.8038 -1.3873 6.3866
Se 15.0939 -0.0061 6.4740
Se -3.5935 12.2342 6.5161
Se -3.6397 -7.4670 6.6052
Se 7.6505 -6.0858 6.6926
Se -11.0370 6.1544 6.7347
Se 0.2531 7.5357 6.8220
Se 11.5433 8.9169 6.9094
Se 0.2070 -12.1655 6.9111
Se -7.1903 1.4559 7.0406
Se 4.0998 2.8372 7.1280
Se -3.3437 -3.2426 7.3465
Se 7.9465 -1.8614 7.4339
Se 0.5491 11.7601 7.5634
Se -10.7871 -9.3223 7.5651
Se 0.5030 -7.9411 7.6524
Se 11.7931 -6.5599 7.7398
Se -6.8943 5.6804 7.7819
Se 4.3958 7.0616 7.8693
Se 4.3497 -12.6396 7.9584
Se -14.3378 -0.3994 8.0005
Se -3.0477 0.9819 8.0878
Se 8.2425 2.3631 8.1752
Se -10.4911 -5.0979 8.3064
Se 0.7990 -3.7166 8.3938
Se 12.0891 -2.3354 8.4812
Se -6.5983 9.9048 8.5233
Se 4.6918 11.2861 8.6106
Se -6.6445 -9.7964 8.6123
Se 4.6457 -8.4151 8.6997
Se -2.7517 5.2063 8.8292
Se 8.5385 6.5876 8.9166
Se -10.1951 -0.8734 9.0477
Se 1.0950 0.5078 9.1351
Se 12.3851 1.8890 9.2225
Se -6.3485 -5.5719 9.3537
Se 4.9417 -4.1907 9.4410
Se -2.4557 9.4308 9.5705
Se -2.5018 -10.2704 9.6596
Se 8.7883 -8.8892 9.7470
Se -9.8991 3.3510 9.7891
Se 1.3910 4.7323 9.8765
Se -6.0525 -1.3475 10.0950
Se 5.2377 0.0338 10.1824
Se -2.2058 -6.0460 10.4009
Se 9.0843 -4.6647 10.4883
Se -9.6031 7.5755 10.5304
Se 1.6870 8.9567 10.6178
Se 1.6409 -10.7445 10.7068
Se -5.7565 2.8770 10.8363
Se 5.5337 4.2582 10.9237
Se -1.9098 -1.8215 11.1423
Se 9.3803 -0.4403 11.2296
Se 1.9369 -6.5200 11.4482
Se -5.4604 7.1014 11.5777
Se 5.8297 8.4827 11.6651
Se -1.6138 2.4029 11.8836
Se 9.6763 3.7842 11.9710
Se -9.0572 -3.6768 12.1021
Se 2.2329 -2.2956 12.1895
Se -5.2106 -8.3753 12.4081
Se 6.0796 -6.9941 12.4955
Se -1.3178 6.6274 12.6249
Se -8.7612 0.5477 12.8435
Se 2.5289 1.9289 12.9309
Se -4.9146 -4.1508 13.1494
Se 6.3756 -2.7696 13.2368
Se -1.0679 -8.8494 13.4553
Se 2.8249 6.1533 13.6722
Se -4.6186 0.0736 13.8908
Se 6.6716 1.4548 13.9781
Se -0.7719 -4.6249 14.1967
Se -4.3226 4.2981 14.6321
Se -0.4759 -0.4004 14.9380
Se 3.3708 -5.0990 15.2439
Se -0.1799 3.8240 15.6794
Se 3.6668 -0.8745 15.9853
