17
candidate A, angstrom
C -1.35857100 -1.41600300 2.37737000
C -1.77396100 -1.55788500 0.91769200
C -1.20001600 -0.46440100 0.01257900
N 0.25609200 -0.55273600 -0.06039100
C 1.02818400 0.42364900 -0.60143600
S 0.38218000 1.87117800 -1.21273800
N 2.37923600 0.18980100 -0.65054500
H -1.79295200 -2.21032400 2.97967000
H -1.68952900 -0.46359900 2.78466700
H -0.27686100 -1.46629600 2.48806900
H -2.86486400 -1.52924100 0.84809900
H -1.46696700 -2.54078400 0.54209900
H -1.47880200 0.53186000 0.38398500
H -1.63537200 -0.55373800 -0.99826900
H 0.69152800 -1.41637600 0.25438500
H 2.79679900 -0.60326100 -0.18041700
H 2.98102400 0.94129400 -0.95916600
