17
candidate C, angstrom
C -3.27146200 -1.54380600 0.94710700
C -1.75104100 -1.48568600 0.90458300
C -1.23386800 -0.25639600 0.15282300
N 0.22361000 -0.24396600 0.13835100
C 0.99791500 0.71348300 -0.43622200
S 2.69419400 0.60360100 -0.36516000
N 0.39231600 1.76274800 -1.06378700
H -3.60636800 -2.42543300 1.48747700
H -3.69002200 -1.58549100 -0.05634400
H -3.68256300 -0.66792200 1.44470900
H -1.36019000 -2.39041200 0.42767600
H -1.35322100 -1.47752100 1.92456200
H -1.62161200 0.66369700 0.62746700
H -1.62967600 -0.25521000 -0.87966800
H 0.71191200 -1.00517500 0.60000000
H -0.61228800 1.83147000 -1.15593900
H 0.97618200 2.45733600 -1.50906500
