17
candidate D, angstrom
C -3.27576200 0.13890200 1.37040500
C -1.77913300 0.36687200 1.53156300
C -1.04073500 0.35585400 0.18786700
N 0.38578200 0.60285600 0.37395700
C 1.36062000 0.05427300 -0.39711800
S 1.05098900 -1.04254000 -1.65766800
N 2.64846900 0.43251600 -0.11644700
H -3.77518000 0.15865800 2.33605900
H -3.47509000 -0.82488000 0.90754500
H -3.72227900 0.90845400 0.74414600
H -1.35771100 -0.40362600 2.18522300
H -1.60496300 1.32561600 2.03473700
H -1.47829100 1.11782000 -0.48319800
H -1.15443300 -0.61195500 -0.31408300
H 0.64886500 1.28152900 1.08562800
H 2.87334100 1.00417100 0.68779800
H 3.40021000 -0.01815600 -0.62003100
