17
candidate B, angstrom
C -1.01045900 -2.10652100 1.72777500
C -1.61150900 -0.70881500 1.81003900
C -1.22490700 0.18617700 0.62570800
N 0.21384100 0.42717700 0.58794300
C 0.92570100 0.60302800 -0.55497700
S 0.23687000 0.52605600 -2.10705400
N 2.26497900 0.86004700 -0.41038700
H -1.32362300 -2.71118400 2.57557800
H 0.07703400 -2.06668600 1.72704800
H -1.32474800 -2.61154500 0.81766100
H -1.30136600 -0.22925000 2.74600400
H -2.70193800 -0.78238200 1.84860300
H -1.77128600 1.14483200 0.69951800
H -1.51561200 -0.27456700 -0.32574900
H 0.69077300 0.51809500 1.48242800
H 2.72240800 0.82238500 0.49150200
H 2.83373300 0.91963700 -1.24389200
