17
S0 starting conformer, angstrom
C -1.38400400 -0.65400500 2.73448500
C -1.87507900 -1.16698100 1.38646300
C -1.47550700 -0.26842400 0.21115800
N -0.03080600 -0.26812400 0.02317700
C 0.64115500 0.44680000 -0.91549600
S 2.33787900 0.36193500 -1.00864000
N -0.06625200 1.24288400 -1.77004300
H -1.68591200 -1.32876200 3.53157000
H -1.79612800 0.32916200 2.95059000
H -0.29941000 -0.57364900 2.75768000
H -2.96567900 -1.24865800 1.40446200
H -1.49052600 -2.17712600 1.21287100
H -1.83966800 0.76061300 0.38399100
H -1.98074900 -0.62064900 -0.70822000
H 0.52951400 -0.84195000 0.64573700
H -1.07664600 1.22474100 -1.80653200
H 0.43915700 1.71765800 -2.50550500
