28
SAMPL9 WP6 guest G13 (challenge 3D structure; coordinates copied unchanged), angstrom
C 0.784 -0.520 0.540
C 2.880 -1.707 0.572
C 1.427 0.212 -2.200
C 2.652 -1.859 -2.323
C 0.710 -0.675 1.917
C 2.753 -1.832 1.948
C 1.542 0.327 -3.578
C 2.737 -1.691 -3.698
C 1.883 -1.042 -0.135
C 1.989 -0.894 -1.570
C 1.579 -1.465 4.022
C 2.290 -0.468 -5.728
N 1.685 -1.319 2.573
N 2.186 -0.617 -4.279
H -0.009 0.003 0.013
H 3.749 -2.124 0.072
H 0.904 0.980 -1.638
H 3.100 -2.732 -1.859
H -0.115 -0.295 2.507
H 3.490 -2.335 2.562
H 1.130 1.160 -4.134
H 3.236 -2.401 -4.346
H 1.048 -2.395 4.246
H 2.573 -1.495 4.476
H 1.029 -0.617 4.439
H 3.203 0.086 -5.962
H 2.326 -1.449 -6.210
H 1.420 0.076 -6.106
