36
SAMPL9 WP6 guest G8 (challenge 3D structure; coordinates copied unchanged), angstrom
C 2.262 -2.258 -2.188
C 0.999 -2.684 -1.778
C 3.119 -1.639 -1.277
C 0.592 -2.491 -0.458
C 2.712 -1.445 0.043
C 1.448 -1.871 0.453
C -0.610 -0.045 0.907
C 1.338 0.778 2.212
C 1.011 -1.662 1.873
C 0.359 -0.747 4.558
C -0.522 -0.399 3.365
C -0.406 -0.818 5.872
N 0.304 -0.332 2.089
O 1.647 -0.171 7.214
O -0.239 -1.269 8.362
O 1.180 -2.559 6.813
S 0.662 -1.251 7.210
H 2.580 -2.410 -3.215
H 0.333 -3.168 -2.486
H 4.103 -1.308 -1.596
H -0.394 -2.826 -0.147
H 3.386 -0.962 0.745
H -1.339 -0.856 0.844
H -1.102 0.912 1.090
H 0.009 -0.003 0.009
H 1.977 0.545 3.066
H 1.914 0.802 1.285
H 0.803 1.717 2.367
H 0.314 -2.445 2.191
H 1.867 -1.679 2.556
H 0.833 -1.717 4.365
H 1.176 -0.019 4.644
H -1.012 0.573 3.483
H -1.282 -1.170 3.205
H -1.191 -1.578 5.835
H -0.855 0.144 6.135
