56
SAMPL9 WP6 guest G5 (challenge 3D structure; coordinates copied unchanged), angstrom
C -1.578 0.689 0.408
C -0.531 -1.591 0.597
C -0.591 -0.414 -1.628
C 0.607 0.407 1.623
C 0.546 1.584 -0.601
C 1.597 -0.697 -0.413
C -1.373 -0.665 -0.315
C -0.220 1.360 0.726
C 0.826 -0.931 0.897
C 0.766 0.236 -1.308
C -2.727 -1.313 -0.621
C -0.444 2.697 1.439
C 2.984 -1.211 2.097
C 1.860 -3.183 1.085
C 0.885 -2.092 3.094
C 2.864 1.119 -2.305
C 0.705 1.399 -3.504
C 1.741 -0.852 -3.319
N 1.620 -1.833 1.772
N 1.501 0.470 -2.578
H -2.186 1.357 -0.218
H -2.143 0.534 1.337
H -1.074 -1.788 1.531
H -0.381 -2.562 0.105
H -0.442 -1.363 -2.159
H -1.177 0.235 -2.292
H 1.572 0.870 1.868
H 0.082 0.243 2.574
H -0.022 2.265 -1.248
H 1.510 2.069 -0.397
H 2.578 -0.249 -0.202
H 1.779 -1.653 -0.923
H -2.571 -2.262 -1.127
H -3.310 -0.654 -1.261
H -3.267 -1.484 0.307
H 0.516 3.159 1.658
H -0.982 2.529 2.369
H -1.025 3.358 0.801
H 3.525 -1.909 2.739
H 3.512 -1.054 1.155
H 2.806 -0.264 2.610
H 2.445 -3.805 1.766
H 0.887 -3.632 0.881
H 2.407 -2.994 0.160
H 1.507 -2.756 3.697
H 0.741 -1.130 3.591
H -0.073 -2.559 2.858
H 3.361 1.269 -3.265
H 2.686 2.072 -1.803
H 3.436 0.441 -1.669
H 1.286 1.538 -4.418
H -0.252 0.920 -3.716
H 0.562 2.348 -2.982
H 2.282 -0.626 -4.239
H 2.330 -1.499 -2.666
H 0.767 -1.296 -3.534
