50
SAMPL9 WP6 guest G12 (challenge 3D structure; coordinates copied unchanged), angstrom
C -0.157 0.304 -1.041
C -1.914 -1.454 -1.374
C 0.565 0.036 -3.431
C -1.195 -1.724 -3.761
C -1.624 0.059 -1.451
C 0.796 -0.460 -1.985
C -0.972 -2.227 -2.319
C -0.901 -0.211 -3.851
C -1.801 0.586 -2.888
C 0.505 -1.972 -1.961
C -3.850 -0.818 -2.810
C -3.343 0.530 -4.836
C -4.037 1.659 -2.733
C 0.386 -1.585 0.491
C 2.331 -2.786 -0.484
C 0.100 -3.879 -0.419
N -3.225 0.491 -3.307
N 0.823 -2.542 -0.624
H 0.066 1.378 -1.084
H 0.000 0.001 0.000
H -1.796 -1.803 -0.342
H -2.957 -1.661 -1.639
H 0.802 1.104 -3.502
H 1.244 -0.484 -4.119
H -0.536 -2.269 -4.449
H -2.220 -1.942 -4.082
H -2.286 0.600 -0.764
H 1.837 -0.267 -1.700
H -1.195 -3.299 -2.272
H -1.044 0.135 -4.882
H -1.559 1.654 -2.935
H 1.164 -2.500 -2.661
H -4.890 -0.839 -3.143
H -3.283 -1.644 -3.244
H -3.786 -0.827 -1.721
H -4.402 0.458 -5.091
H -2.920 1.476 -5.180
H -2.785 -0.318 -5.236
H -5.070 1.543 -3.068
H -3.970 1.609 -1.645
H -3.603 2.586 -3.111
H 0.640 -2.047 1.447
H 0.924 -0.645 0.354
H -0.692 -1.437 0.401
H 2.511 -3.202 0.509
H 2.630 -3.488 -1.264
H 2.837 -1.826 -0.605
H 0.365 -4.254 0.571
H -0.974 -3.693 -0.494
H 0.435 -4.564 -1.200
