39
SAMPL9 WP6 guest G1 (challenge 3D structure; coordinates copied unchanged), angstrom
C -0.463 -0.861 0.499
C -1.792 -1.167 -0.213
C 0.531 -2.029 0.475
C -2.611 -2.325 0.379
C 1.833 -1.767 1.244
C -3.179 -2.034 1.775
C 1.723 -1.579 2.765
C -3.315 -3.274 2.675
C 1.682 -2.861 3.616
C -2.007 -4.029 2.976
C 0.497 -3.813 3.411
C -0.881 -3.155 3.546
N -1.159 -2.874 4.982
H -0.000 -0.000 -0.000
H -0.666 -0.538 1.523
H -2.408 -0.259 -0.215
H -1.578 -1.399 -1.264
H 0.066 -2.941 0.844
H 0.793 -2.231 -0.571
H -3.456 -2.524 -0.293
H -2.013 -3.238 0.361
H 2.535 -2.584 1.037
H 2.290 -0.861 0.825
H -2.601 -1.267 2.296
H -4.178 -1.595 1.650
H 2.625 -1.037 3.080
H 0.893 -0.916 3.025
H -3.774 -2.965 3.621
H -4.018 -3.975 2.208
H 2.606 -3.426 3.437
H 1.716 -2.565 4.672
H -2.225 -4.856 3.664
H -1.664 -4.510 2.053
H 0.599 -4.276 2.423
H 0.583 -4.644 4.124
H -0.874 -2.185 3.063
H -1.612 -3.676 5.427
H -1.776 -2.063 5.078
H -0.290 -2.677 5.486
